[Molden Format]
[Title]
 Molden file created by orca_2mkl for BaseName=input

[Atoms] AU
C    1   6         -0.0286828509         0.0062270369         0.0000000646 
C    2   6          2.4622601042         0.0022822822        -0.0000007492 
O    3   8          3.9966491785         2.0326616309         0.0000118941 
H    4   1          3.0311392677         3.5437175451         0.0000221200 
H    5   1          3.5447946654        -1.7130837436        -0.0000125887 
H    6   1         -1.1152962750         1.7268730137         0.0000117114 
H    7   1         -1.0489886769        -1.7450530357        -0.0000112915 
[GTO]
  1 0
s   6 1.0 
     3047.5249000000         0.5363343823
      457.3695100000         0.9894506076
      103.9486900000         1.5972822308
       29.2101550000         2.0791870615
        9.2866630000         1.7741742532
        3.1639270000         0.6125798260
s   3 1.0 
        7.8682724000        -0.3995563516
        1.8812885000        -0.1841552393
        0.5442493000         0.5163903794
p   3 1.0 
        7.8682724000         1.2960827175
        1.8812885000         0.9937536282
        0.5442493000         0.4959527138
s   1 1.0 
        0.1687144000         0.1876178721
p   1 1.0 
        0.1687144000         0.1541275509
d   1 1.0 
        0.8000000000         1.9292013661

  2 0
s   6 1.0 
     3047.5249000000         0.5363343823
      457.3695100000         0.9894506076
      103.9486900000         1.5972822308
       29.2101550000         2.0791870615
        9.2866630000         1.7741742532
        3.1639270000         0.6125798260
s   3 1.0 
        7.8682724000        -0.3995563516
        1.8812885000        -0.1841552393
        0.5442493000         0.5163903794
p   3 1.0 
        7.8682724000         1.2960827175
        1.8812885000         0.9937536282
        0.5442493000         0.4959527138
s   1 1.0 
        0.1687144000         0.1876178721
p   1 1.0 
        0.1687144000         0.1541275509
d   1 1.0 
        0.8000000000         1.9292013661

  3 0
s   6 1.0 
     5484.6717000000         0.8317352088
      825.2349500000         1.5308074829
      188.0469600000         2.4771490916
       52.9645000000         3.2562802462
       16.8975700000         2.7928936336
        5.7996353000         0.9549376963
s   3 1.0 
       15.5396160000        -0.6179336976
        3.5999336000        -0.2757210088
        1.0137618000         0.8142076427
p   3 1.0 
       15.5396160000         3.1169455889
        3.5999336000         2.4014372483
        1.0137618000         1.0543605133
s   1 1.0 
        0.2700058000         0.2669561389
p   1 1.0 
        0.2700058000         0.2774319373
d   1 1.0 
        0.8000000000         1.9292013661

  4 0
s   3 1.0 
       18.7311370000         0.2149354183
        2.8253937000         0.3645711272
        0.6401217000         0.4150514277
s   1 1.0 
        0.1612778000         0.1813806839

  5 0
s   3 1.0 
       18.7311370000         0.2149354183
        2.8253937000         0.3645711272
        0.6401217000         0.4150514277
s   1 1.0 
        0.1612778000         0.1813806839

  6 0
s   3 1.0 
       18.7311370000         0.2149354183
        2.8253937000         0.3645711272
        0.6401217000         0.4150514277
s   1 1.0 
        0.1612778000         0.1813806839

  7 0
s   3 1.0 
       18.7311370000         0.2149354183
        2.8253937000         0.3645711272
        0.6401217000         0.4150514277
s   1 1.0 
        0.1612778000         0.1813806839

[5D]
[7F]
[9G]
[MO]
 Sym=     1a
 Ene= -2.05874762340032E+01
 Spin= Alpha
 Occup= 2.000000
  1       0.000021772985
  2       0.000021958464
  3      -0.000222200837
  4       0.000030855964
  5       0.000000000282
  6      -0.001542349309
  7      -0.000619454938
  8      -0.002516960990
  9      -0.000000016367
 10      -0.000011982371
 11      -0.000000001305
 12       0.000000000794
 13      -0.000091144979
 14      -0.000206162098
 15       0.000028511361
 16       0.000061083743
 17       0.000269229580
 18       0.000256323750
 19       0.000000001545
 20       0.005202659186
 21       0.000617784978
 22       0.004665800381
 23       0.000000030288
 24      -0.000098987006
 25      -0.000000001815
 26       0.000000001278
 27      -0.000012550463
 28      -0.000273618941
 29       0.995823862954
 30       0.023105310192
 31      -0.001723199020
 32      -0.000171704591
 33      -0.000000000412
 34      -0.012187755063
 35       0.003197208032
 36       0.001413068210
 37       0.000000007912
 38       0.000333209356
 39      -0.000000001095
 40      -0.000000004267
 41       0.000085650234
 42      -0.000196796822
 43       0.000480278347
 44       0.001477082235
 45      -0.000104449863
 46       0.001112393446
 47       0.000242171887
 48       0.000877775472
 49      -0.000192932189
 50      -0.000777703802
 Sym=     1a
 Ene= -1.12923191304046E+01
 Spin= Alpha
 Occup= 2.000000
  1       0.009891568982
  2      -0.000656421819
  3      -0.000516663685
  4       0.000057962735
  5       0.000000000535
  6       0.004606367974
  7       0.002329607827
  8      -0.001055237813
  9      -0.000000007748
 10       0.000182058516
 11       0.000000000196
 12      -0.000000001292
 13      -0.000118991596
 14       0.000011874754
 15       0.996048847567
 16       0.024307775075
 17       0.000842216069
 18       0.001155904181
 19       0.000000007093
 20      -0.010673379822
 21       0.002163472452
 22       0.002203497912
 23       0.000000014016
 24      -0.000946630988
 25       0.000000002715
 26       0.000000008971
 27       0.000241134913
 28       0.000520535634
 29      -0.000065036453
 30       0.000763738884
 31      -0.000026398915
 32      -0.000039816497
 33      -0.000000000248
 34      -0.002411248458
 35       0.001180396155
 36       0.001843617337
 37       0.000000011466
 38       0.000667869133
 39      -0.000000004962
 40      -0.000000009750
 41       0.000388769909
 42      -0.000808656294
 43       0.000085371350
 44      -0.000020664139
 45      -0.000286767918
 46       0.002750409526
 47      -0.000034829786
 48       0.000663059147
 49      -0.000197224551
 50      -0.000166040990
 Sym=     1a
 Ene= -1.12057161144706E+01
 Spin= Alpha
 Occup= 2.000000
  1      -0.996014213644
  2      -0.024712671160
  3      -0.000364338523
  4      -0.000038391037
  5      -0.000000000022
  6       0.014428612851
  7       0.000891274479
  8       0.000139415376
  9       0.000000000434
 10       0.000545321667
 11       0.000000000475
 12      -0.000000003781
 13      -0.000372131548
 14       0.000009228137
 15       0.010478599866
 16       0.001278670915
 17      -0.000583788346
 18       0.000037682192
 19       0.000000000405
 20      -0.004994540688
 21       0.002045065555
 22      -0.000230106635
 23      -0.000000002124
 24      -0.000285993325
 25      -0.000000000078
 26       0.000000001692
 27       0.000237524076
 28       0.000023674947
 29      -0.000003393048
 30       0.000048875152
 31      -0.000029400412
 32      -0.000013085669
 33      -0.000000000075
 34       0.000192580263
 35      -0.000098082182
 36       0.000012464385
 37       0.000000000129
 38       0.000089246679
 39      -0.000000000150
 40      -0.000000000787
 41      -0.000030732504
 42      -0.000032167794
 43       0.000027317638
 44      -0.000039552713
 45       0.000091688024
 46      -0.000068086488
 47       0.000329914530
 48      -0.002782501248
 49       0.000336566791
 50      -0.002668070017
 Sym=     1a
 Ene= -1.40784844953145E+00
 Spin= Alpha
 Occup= 2.000000
  1       0.016402102484
  2      -0.031615890613
  3      -0.025243640284
  4      -0.006440747706
  5      -0.000000033049
  6      -0.022962173266
  7      -0.007990616489
  8      -0.021434758292
  9      -0.000000137738
 10       0.002056400973
 11      -0.000000013585
 12       0.000000000817
 13      -0.003591097089
 14      -0.002499512347
 15       0.077938530180
 16      -0.147097042919
 17      -0.059882514380
 18      -0.093704043756
 19      -0.000000587997
 20      -0.022197414247
 21       0.004080594074
 22       0.031067598144
 23       0.000000201497
 24       0.013972228702
 25      -0.000000117165
 26      -0.000000200868
 27       0.007649982776
 28      -0.018930066498
 29       0.205882486190
 30      -0.448483785073
 31       0.091579350552
 32       0.010509053387
 33       0.000000033688
 34      -0.477657489447
 35       0.059229716484
 36       0.008848846780
 37       0.000000034375
 38       0.014101036019
 39       0.000000025832
 40      -0.000000186026
 41       0.003940772214
 42       0.002710647340
 43      -0.118599620889
 44       0.012334255789
 45      -0.023784733787
 46       0.007992581072
 47      -0.004563682252
 48       0.004532943393
 49      -0.004450284771
 50      -0.006965648674
 Sym=     1a
 Ene= -1.02322027200396E+00
 Spin= Alpha
 Occup= 2.000000
  1      -0.162010836531
  2       0.303275628036
  3       0.105664279693
  4      -0.007149175829
  5      -0.000000085280
  6       0.241894157190
  7       0.006630054023
  8       0.010972944126
  9       0.000000068004
 10      -0.016042878731
 11      -0.000000012128
 12       0.000000143814
 13       0.006080549830
 14      -0.000240737358
 15      -0.139830422229
 16       0.278462928842
 17      -0.148149371892
 18      -0.042731079879
 19      -0.000000236151
 20       0.185858112659
 21      -0.024527938294
 22      -0.027900751813
 23      -0.000000176291
 24      -0.010887404338
 25      -0.000000072484
 26       0.000000041358
 27       0.013259288189
 28      -0.009397787190
 29       0.054471817702
 30      -0.125724776704
 31      -0.035829633316
 32      -0.099798471369
 33      -0.000000640119
 34      -0.147805191456
 35      -0.020529305838
 36      -0.056470474577
 37      -0.000000361199
 38      -0.000679360545
 39       0.000000089414
 40      -0.000000029854
 41       0.004911839037
 42       0.014040543134
 43      -0.064520059526
 44      -0.005102917737
 45       0.079771365518
 46       0.011286788353
 47       0.083016544209
 48       0.009220164476
 49       0.089717116593
 50       0.021056695443
 Sym=     1a
 Ene= -8.35196098809241E-01
 Spin= Alpha
 Occup= 2.000000
  1       0.097152999050
  2      -0.183490687979
  3       0.064939570024
  4      -0.019424803008
  5      -0.000000145792
  6      -0.203398833734
  7       0.008491527895
  8       0.001915426186
  9       0.000000010769
 10       0.011996694473
 11       0.000000008798
 12      -0.000000181243
 13       0.006626498096
 14       0.000836835781
 15      -0.092059365577
 16       0.189223614685
 17       0.223414909123
 18      -0.026644064974
 19      -0.000000264186
 20       0.170966370769
 21       0.029612897442
 22      -0.038752354544
 23      -0.000000267643
 24      -0.013798910785
 25       0.000000018152
 26       0.000000184351
 27      -0.004272641434
 28       0.004252105634
 29       0.013967899600
 30      -0.030040774011
 31       0.025205555743
 32      -0.352301804378
 33      -0.000002309455
 34      -0.044293058149
 35       0.016955244151
 36      -0.197331925443
 37      -0.000001294024
 38       0.003871618958
 39       0.000000202660
 40      -0.000000048290
 41      -0.001102409841
 42       0.030605603244
 43      -0.172740552532
 44      -0.051903318140
 45       0.139467932103
 46       0.054524119299
 47      -0.104409679372
 48      -0.054557598684
 49      -0.085332626309
 50      -0.034965045306
 Sym=     1a
 Ene= -6.79190182965887E-01
 Spin= Alpha
 Occup= 2.000000
  1       0.054727160505
  2      -0.110198156861
  3       0.308461453329
  4      -0.041569274933
  5      -0.000000364949
  6      -0.140379787296
  7       0.116545569207
  8      -0.000849651707
  9      -0.000000038328
 10       0.009510539689
 11      -0.000000000894
 12      -0.000000249601
 13       0.021301812877
 14       0.000202016748
 15      -0.066831776722
 16       0.139103926580
 17      -0.180565595909
 18      -0.122601732749
 19      -0.000000742645
 20       0.123956923520
 21      -0.034395193613
 22      -0.054790567937
 23      -0.000000349045
 24      -0.000494438346
 25      -0.000000135035
 26       0.000000045505
 27      -0.004734067194
 28      -0.020874162152
 29       0.035840925692
 30      -0.091236290859
 31      -0.167514509422
 32       0.272216570525
 33       0.000001832202
 34      -0.115377898482
 35      -0.123619462989
 36       0.164802232674
 37       0.000001117833
 38      -0.009974181945
 39      -0.000000133752
 40       0.000000082255
 41       0.005809057278
 42      -0.019201861919
 43       0.152148515512
 44       0.065695828987
 45       0.076815008263
 46       0.033381785889
 47      -0.167395415010
 48      -0.105465142427
 49      -0.122909365300
 50      -0.067725372723
 Sym=     1a
 Ene= -6.70250740037696E-01
 Spin= Alpha
 Occup= 2.000000
  1      -0.009942591112
  2       0.020267586422
  3      -0.077098087835
  4      -0.225298648054
  5      -0.000001467403
  6       0.039296524817
  7      -0.030280808992
  8      -0.107959611365
  9      -0.000000704652
 10      -0.001711312570
 11       0.000000034652
 12       0.000000059323
 13      -0.006033471756
 14       0.005113431971
 15       0.010626630970
 16      -0.022329868449
 17       0.063306224336
 18      -0.326980779132
 19      -0.000002182113
 20       0.038061403599
 21       0.057355539604
 22      -0.092867565919
 23      -0.000000638432
 24       0.001583266683
 25      -0.000000121739
 26      -0.000000022709
 27       0.002191496990
 28      -0.018508019906
 29      -0.034616797358
 30       0.086090891639
 31       0.306701398513
 32       0.169073437390
 33       0.000000967910
 34       0.112949583186
 35       0.202754138643
 36       0.115370898135
 37       0.000000663505
 38       0.008351351241
 39      -0.000000083050
 40       0.000000048154
 41      -0.020854410385
 42      -0.014974889992
 43       0.020980833082
 44       0.018741410616
 45       0.163135979194
 46       0.101424632059
 47      -0.071681737120
 48      -0.044199617850
 49       0.139409761224
 50       0.079330800111
 Sym=     1a
 Ene= -5.76538918232211E-01
 Spin= Alpha
 Occup= 2.000000
  1      -0.000000002435
  2       0.000000003300
  3       0.000000052714
  4      -0.000000669554
  5       0.099668687325
  6       0.000000009250
  7       0.000000026544
  8      -0.000000418000
  9       0.061216881818
 10       0.000000003576
 11       0.011163659780
 12       0.000825552430
 13       0.000000009790
 14      -0.000000072302
 15      -0.000000005100
 16       0.000000009134
 17       0.000000055606
 18      -0.000001446478
 19       0.219940961802
 20       0.000000018728
 21       0.000000040901
 22      -0.000000794297
 23       0.122003858048
 24       0.000000207796
 25       0.007205183711
 26       0.018817045968
 27       0.000000128681
 28      -0.000000038665
 29      -0.000000004126
 30       0.000000009510
 31       0.000000260940
 32      -0.000003665745
 33       0.562323238294
 34       0.000000015942
 35       0.000000191459
 36      -0.000002682994
 37       0.411836280389
 38      -0.000000020776
 39      -0.030798547384
 40      -0.003820457291
 41      -0.000000038422
 42       0.000000199887
 43      -0.000000010114
 44      -0.000000005501
 45      -0.000000010828
 46      -0.000000006916
 47      -0.000000013321
 48      -0.000000009483
 49      -0.000000000655
 50      -0.000000004251
 Sym=     1a
 Ene= -5.43147145865261E-01
 Spin= Alpha
 Occup= 2.000000
  1       0.013680697921
  2      -0.024125889620
  3      -0.190379557869
  4      -0.272361410791
  5      -0.000001748009
  6      -0.052339413219
  7      -0.083525450498
  8      -0.126064510340
  9      -0.000000812077
 10      -0.002216172015
 11       0.000000144948
 12       0.000000090871
 13      -0.010691160674
 14       0.021646984020
 15       0.005053774985
 16      -0.009938454953
 17       0.196822477497
 18       0.067144688111
 19       0.000000370375
 20      -0.030832548412
 21       0.010204820371
 22       0.009150416557
 23       0.000000060957
 24      -0.005464029506
 25       0.000000117286
 26       0.000000204714
 27      -0.022532778895
 28       0.016946796978
 29       0.035164138424
 30      -0.088427745345
 31      -0.426389809789
 32      -0.026716507264
 33       0.000000027976
 34      -0.129759115129
 35      -0.317774758578
 36      -0.026357232622
 37      -0.000000019912
 38      -0.013857809587
 39      -0.000000030851
 40       0.000000058450
 41       0.015098302069
 42      -0.002120209893
 43       0.088971888548
 44       0.036777011614
 45       0.023550776955
 46       0.026678462765
 47      -0.100589681332
 48      -0.073104141727
 49       0.209703408413
 50       0.177561965748
 Sym=     1a
 Ene= -5.37646132605145E-01
 Spin= Alpha
 Occup= 2.000000
  1       0.019784951458
  2      -0.040580257961
  3      -0.207763743481
  4       0.252700131930
  5       0.000001737514
  6      -0.039337853045
  7      -0.071697913111
  8       0.174805935149
  9       0.000001180136
 10      -0.002005625396
 11      -0.000000170725
 12       0.000000096597
 13      -0.010106723310
 14      -0.026298317643
 15      -0.009350296828
 16       0.019802586820
 17       0.247778781683
 18      -0.190545121613
 19      -0.000001329090
 20       0.039399787894
 21       0.085922132361
 22      -0.131352014776
 23      -0.000000887424
 24      -0.003939235784
 25      -0.000000219508
 26       0.000000195750
 27      -0.020531547832
 28      -0.033978153283
 29       0.033259640465
 30      -0.082139082644
 31      -0.145753218650
 32       0.144329882101
 33       0.000001039128
 34      -0.127861991461
 35      -0.121607145103
 36       0.091411138056
 37       0.000000675679
 38      -0.008270518833
 39      -0.000000090850
 40       0.000000111080
 41      -0.001901371156
 42      -0.012801259327
 43       0.108800702003
 44       0.086075882006
 45       0.219036343854
 46       0.168969485577
 47       0.206755588713
 48       0.175687891287
 49      -0.098179017776
 50      -0.051656883592
 Sym=     1a
 Ene= -3.45452644569523E-01
 Spin= Alpha
 Occup= 2.000000
  1       0.000000000552
  2      -0.000000000114
  3      -0.000000098503
  4       0.000002627206
  5      -0.396414477454
  6       0.000000006188
  7      -0.000000089792
  8       0.000002324470
  9      -0.351724855187
 10       0.000000021411
 11      -0.023462984698
 12       0.000727932356
 13      -0.000000002141
 14       0.000000154161
 15       0.000000004154
 16      -0.000000004492
 17      -0.000000125353
 18       0.000002024595
 19      -0.307888785789
 20      -0.000000032497
 21      -0.000000075128
 22       0.000001520482
 23      -0.229627950915
 24       0.000000104841
 25       0.035972480855
 26       0.011066951918
 27       0.000000085388
 28      -0.000000233442
 29       0.000000000245
 30      -0.000000000046
 31       0.000000127017
 32      -0.000001880673
 33       0.288523043661
 34      -0.000000009139
 35       0.000000118812
 36      -0.000001783409
 37       0.274328688913
 38       0.000000081349
 39      -0.007905020212
 40       0.006707831787
 41       0.000000040796
 42       0.000000054557
 43      -0.000000004401
 44      -0.000000003583
 45       0.000000006252
 46       0.000000004789
 47       0.000000004746
 48       0.000000001588
 49      -0.000000005057
 50      -0.000000012090
 Sym=     1a
 Ene= 2.08001837693470E-01
 Spin= Alpha
 Occup= 0.000000
  1      -0.000000021509
  2       0.000000043878
  3       0.000000082992
  4      -0.000002011250
  5       0.306405269495
  6       0.000000083996
  7       0.000000039620
  8      -0.000004875370
  9       0.732270096289
 10       0.000000040557
 11      -0.028472583809
 12       0.002297832512
 13       0.000000006224
 14       0.000000182225
 15       0.000000020991
 16      -0.000000030889
 17      -0.000000184295
 18       0.000002723047
 19      -0.416518207168
 20      -0.000000078911
 21      -0.000000480576
 22       0.000005293667
 23      -0.793779201058
 24       0.000000129761
 25      -0.018586545944
 26       0.010938649460
 27       0.000000063576
 28       0.000000129775
 29      -0.000000027266
 30       0.000000047776
 31       0.000000000433
 32      -0.000001127020
 33       0.177779735606
 34       0.000000315602
 35       0.000000005921
 36      -0.000001730413
 37       0.280300900362
 38       0.000000225869
 39      -0.000166960466
 40       0.020212798164
 41       0.000000133327
 42       0.000000004006
 43      -0.000000022098
 44      -0.000000462719
 45       0.000000040381
 46       0.000000237767
 47       0.000000012335
 48      -0.000000134653
 49      -0.000000031682
 50      -0.000000211656
 Sym=     1a
 Ene= 2.28908682487416E-01
 Spin= Alpha
 Occup= 0.000000
  1      -0.042582430082
  2       0.061036123031
  3      -0.074163206617
  4       0.051244563810
  5       0.000000251461
  6       0.423789315027
  7      -0.504510286396
  8       0.085362524864
  9       0.000000434076
 10      -0.002468565770
 11      -0.000000082997
 12       0.000000007179
 13       0.003713976032
 14      -0.013840297541
 15       0.006894045567
 16      -0.019154089487
 17      -0.042061483976
 18      -0.054330860720
 19      -0.000000195688
 20       0.257119827092
 21      -0.252547232308
 22      -0.034073270372
 23       0.000000149767
 24      -0.005655922318
 25       0.000000013183
 26       0.000000101720
 27      -0.006427467368
 28       0.001116028190
 29      -0.067993078393
 30       0.096035829018
 31      -0.149328586933
 32       0.176652144237
 33       0.000001151290
 34       0.927406018005
 35      -0.304258193521
 36       0.424951403988
 37       0.000002794322
 38      -0.007452020103
 39      -0.000000096097
 40       0.000000065072
 41       0.002654173316
 42      -0.013799895718
 43      -0.070225248513
 44      -1.439023886132
 45       0.040809892634
 46       0.155791870808
 47       0.042135181966
 48      -0.564319735987
 49      -0.048713727976
 50      -0.484556967087
 Sym=     1a
 Ene= 2.77191753514549E-01
 Spin= Alpha
 Occup= 0.000000
  1       0.026252216883
  2      -0.024334256252
  3       0.078309108252
  4       0.182119957857
  5       0.000001171875
  6      -0.574945197872
  7       0.361938866753
  8       0.509837303750
  9       0.000003230413
 10      -0.001152675429
 11       0.000000110903
 12       0.000000035161
 13      -0.003895560534
 14       0.016389579315
 15       0.063786882382
 16      -0.076733717817
 17      -0.118143554842
 18       0.226555327800
 19       0.000001567277
 20      -1.250839734014
 21      -0.406010612997
 22       0.751701876863
 23       0.000005195571
 24       0.001823983413
 25      -0.000000115225
 26       0.000000011959
 27      -0.003993626238
 28      -0.017967311993
 29      -0.003748506283
 30      -0.007578347358
 31       0.032844553226
 32       0.032284962151
 33       0.000000184595
 34       0.107690349613
 35       0.079724372725
 36       0.011947040052
 37       0.000000019599
 38      -0.000082646147
 39      -0.000000003232
 40      -0.000000071050
 41       0.010896925174
 42       0.000363815144
 43      -0.031000947314
 44      -0.269028776946
 45       0.031168925059
 46       1.767903507683
 47      -0.022434509013
 48      -0.291040101908
 49       0.031317513102
 50       1.212026834149
 Sym=     1a
 Ene= 2.97834719278658E-01
 Spin= Alpha
 Occup= 0.000000
  1       0.102344635995
  2      -0.074188108085
  3       0.159774563591
  4      -0.104814241596
  5      -0.000000742036
  6      -2.124701813787
  7       0.461935894578
  8      -0.519196291503
  9      -0.000003556229
 10       0.002296949353
 11      -0.000000113968
 12      -0.000000012147
 13      -0.001407831340
 14      -0.017615976661
 15       0.000609882950
 16      -0.003813926487
 17      -0.089754013483
 18      -0.102718158140
 19      -0.000000634534
 20       0.014656945532
 21      -0.522168573203
 22      -0.191926812200
 23      -0.000001062496
 24      -0.004823472814
 25       0.000000106001
 26       0.000000106140
 27      -0.008707675097
 28       0.015925861701
 29      -0.046901416014
 30       0.075416761581
 31      -0.066525915648
 32      -0.003208765504
 33       0.000000003616
 34       0.648849596053
 35      -0.180289792362
 36      -0.052724038926
 37      -0.000000271715
 38      -0.001895487600
 39       0.000000003395
 40      -0.000000011036
 41       0.004857772087
 42       0.001059890661
 43      -0.048235054348
 44      -0.502772072708
 45      -0.023879299243
 46      -0.036839777625
 47       0.064791005167
 48       1.909132107421
 49      -0.026582922390
 50       0.605411082588
 Sym=     1a
 Ene= 3.45449907741660E-01
 Spin= Alpha
 Occup= 0.000000
  1       0.058539377761
  2      -0.066152137027
  3       0.016975391858
  4       0.224781730887
  5       0.000001502592
  6      -0.949871728115
  7      -0.108069058389
  8       1.514693138655
  9       0.000010170400
 10       0.004292172564
 11       0.000000025690
 12      -0.000000085044
 13       0.005160230236
 14       0.004410835164
 15      -0.090089210285
 16       0.102117537059
 17       0.099115617243
 18      -0.052932024685
 19      -0.000000430852
 20       1.689117332310
 21       0.310702514977
 22      -0.921228610394
 23      -0.000006366501
 24       0.004359125568
 25      -0.000000209339
 26      -0.000000043159
 27       0.001471849270
 28      -0.031934325694
 29       0.013480264390
 30      -0.063458730246
 31       0.076013474162
 32       0.139422051000
 33       0.000000896547
 34       0.075330032694
 35      -0.003282694831
 36       0.282948855340
 37       0.000001899439
 38      -0.004258803946
 39       0.000000028936
 40       0.000000078017
 41      -0.004638041376
 42       0.004611086023
 43      -0.017000890576
 44      -0.247315014566
 45       0.026099295730
 46      -1.650206016144
 47       0.000380293003
 48      -0.931922070167
 49       0.008533794538
 50       1.895628904187
 Sym=     1a
 Ene= 4.72598643526653E-01
 Spin= Alpha
 Occup= 0.000000
  1       0.050677057426
  2      -0.062850665604
  3       0.028156718774
  4      -0.155539061892
  5      -0.000001034567
  6      -0.671928133928
  7      -0.674010255025
  8      -1.455132509380
  9      -0.000009317313
 10       0.013482363325
 11       0.000000242372
 12      -0.000000283938
 13       0.018739112170
 14       0.036906906860
 15      -0.086358542679
 16       0.017899015789
 17      -0.023659725262
 18       0.221989327246
 19       0.000001448814
 20       2.080030631500
 21       0.501236002482
 22       2.080720915275
 23       0.000013380300
 24       0.004358000702
 25       0.000000027698
 26      -0.000000056854
 27       0.001025241537
 28       0.004143875641
 29       0.068839093880
 30      -0.069161795820
 31       0.066887869352
 32       0.252046767410
 33       0.000001615315
 34      -1.446777629894
 35       0.560191175699
 36       0.942277037128
 37       0.000005919915
 38       0.022913695219
 39      -0.000000142985
 40      -0.000000278291
 41       0.004572227639
 42      -0.023831403164
 43      -0.027131452325
 44      -0.693559556585
 45      -0.031856512592
 46       0.553328480110
 47      -0.142433299963
 48       1.191806405515
 49       0.075000563963
 50      -0.977264374495
 Sym=     1a
 Ene= 5.29968872940793E-01
 Spin= Alpha
 Occup= 0.000000
  1       0.066898911782
  2       0.059373542556
  3      -0.005390637051
  4       0.046454867681
  5       0.000000301187
  6      -3.377847775458
  7      -3.289124265342
  8       0.085811118823
  9       0.000001523086
 10       0.015264453201
 11      -0.000000021107
 12      -0.000000335276
 13       0.024332666446
 14      -0.003921141250
 15      -0.055146031537
 16       0.081901828060
 17      -0.238250881933
 18       0.070343089662
 19       0.000000573896
 20       3.106184451212
 21      -3.190003103381
 22      -0.110856892521
 23       0.000000381148
 24      -0.010440353219
 25       0.000000006466
 26       0.000000083873
 27       0.005394601407
 28       0.002058858697
 29      -0.010265565031
 30       0.017043203164
 31       0.055737892253
 32      -0.117615377803
 33      -0.000000788477
 34       0.317398871414
 35       0.242090158365
 36      -0.522499548559
 37      -0.000003483149
 38       0.006538227799
 39       0.000000189118
 40      -0.000000038841
 41      -0.007069216691
 42       0.028495739365
 43      -0.032050085069
 44       0.663770232999
 45       0.000601927109
 46       0.806352039454
 47      -0.077186270898
 48      -0.714833993063
 49      -0.134300796414
 50      -0.456778888315
 Sym=     1a
 Ene= 7.16464949435809E-01
 Spin= Alpha
 Occup= 0.000000
  1       0.009546868529
  2      -0.399825743257
  3      -0.567488224208
  4      -0.001174476011
  5       0.000000155670
  6      -0.800101631986
  7       0.217802837604
  8      -0.179778211715
  9      -0.000001236797
 10       0.021454763475
 11       0.000000176545
 12      -0.000000002177
 13      -0.037777313473
 14       0.023524624601
 15      -0.061959957836
 16      -0.246412347726
 17       0.461923059362
 18       0.262481877483
 19       0.000001578175
 20       0.792748271309
 21      -1.608468203722
 22      -0.056843844701
 23       0.000000130371
 24       0.076459926130
 25      -0.000000174348
 26      -0.000000478463
 27      -0.056209978365
 28      -0.036724463839
 29       0.007254784257
 30      -0.091761702564
 31       0.195521791427
 32       0.130181999185
 33       0.000000788958
 34       0.388419287637
 35       0.133121777184
 36       0.019276745361
 37       0.000000092380
 38      -0.007572465367
 39       0.000000504074
 40       0.000000024582
 41       0.004943237831
 42       0.078783140383
 43      -0.222347567385
 44       0.008877191095
 45      -0.049422714961
 46       0.287787266474
 47       0.008289246917
 48       0.143757225815
 49       0.056971912880
 50      -0.278537969452
 Sym=     1a
 Ene= 7.64662470434282E-01
 Spin= Alpha
 Occup= 0.000000
  1       0.000000002381
  2      -0.000000054416
  3      -0.000000207853
  4       0.000004534519
  5      -0.684127966743
  6       0.000000063551
  7       0.000000104817
  8      -0.000003383353
  9       0.513055895184
 10       0.000000005632
 11      -0.062810125490
 12      -0.002671249487
 13      -0.000000034040
 14       0.000000411474
 15       0.000000003129
 16      -0.000000096760
 17      -0.000000294103
 18       0.000005068232
 19      -0.765874647726
 20       0.000000113412
 21       0.000000300199
 22      -0.000005392454
 23       0.806361230508
 24      -0.000000278003
 25       0.057420298527
 26      -0.022271704489
 27      -0.000000130279
 28      -0.000000386089
 29      -0.000000000405
 30      -0.000000004444
 31      -0.000000038629
 32       0.000000645376
 33      -0.099376077802
 34       0.000000032730
 35      -0.000000045791
 36       0.000000478070
 37      -0.073083035939
 38       0.000000332270
 39       0.020219462181
 40       0.030754893025
 41       0.000000209244
 42      -0.000000116530
 43      -0.000000007843
 44       0.000000029211
 45      -0.000000035782
 46      -0.000000002609
 47      -0.000000004154
 48      -0.000000033137
 49      -0.000000024540
 50       0.000000003174
 Sym=     1a
 Ene= 8.24899193110549E-01
 Spin= Alpha
 Occup= 0.000000
  1       0.008978034457
  2       0.541329328508
  3       0.051182507920
  4      -0.248390700888
  5      -0.000001764706
  6      -0.838106344863
  7       0.231670891861
  8       0.743251684558
  9       0.000004936288
 10      -0.072356121114
 11       0.000000564625
 12       0.000000969414
 13      -0.024767248617
 14       0.089583000913
 15       0.011221762449
 16       0.919035075987
 17       0.127066997476
 18       0.138317586095
 19       0.000000869212
 20      -1.744560420350
 21      -0.596351049544
 22      -0.388948819188
 23      -0.000002290750
 24      -0.064872582167
 25      -0.000000758912
 26       0.000000772829
 27       0.002704699604
 28      -0.109719100741
 29      -0.019180945082
 30       0.025877197970
 31       0.187533093936
 32       0.064275515893
 33       0.000000322076
 34       0.679583647987
 35      -0.209034789532
 36      -0.248758137261
 37      -0.000001533542
 38      -0.062411093737
 39       0.000000464680
 40       0.000000722747
 41      -0.007742400461
 42       0.078146195317
 43      -0.109961462046
 44       0.153937339459
 45       0.525776887876
 46       0.137916275949
 47      -0.026261561401
 48       0.067715995476
 49       0.500168592797
 50       0.187376705462
 Sym=     1a
 Ene= 8.48343084025580E-01
 Spin= Alpha
 Occup= 0.000000
  1      -0.008794300365
  2      -0.329788810810
  3      -0.071306347762
  4      -0.303112902080
  5      -0.000002002934
  6      -0.170749754563
  7      -0.408981657312
  8       0.756734660475
  9       0.000005119284
 10       0.040645433429
 11       0.000000224964
 12      -0.000000417341
 13      -0.007558222902
 14       0.029621847533
 15       0.030840749917
 16      -0.604920081624
 17      -0.081999007976
 18      -0.719385719509
 19      -0.000004698534
 20       0.753859295061
 21      -0.738893451182
 22       0.829873569094
 23       0.000005742361
 24      -0.026676310248
 25       0.000000017207
 26       0.000000584921
 27      -0.042124868735
 28       0.004266340411
 29      -0.038730431590
 30       0.158050896780
 31       0.046558149019
 32      -0.105712183063
 33      -0.000000715190
 34      -0.067552302300
 35      -0.073165571625
 36      -0.212484357009
 37      -0.000001358118
 38       0.063057644776
 39      -0.000000504991
 40      -0.000001178771
 41       0.076831771023
 42      -0.079166462631
 43      -0.097624232199
 44      -0.195003759487
 45       0.304587044484
 46       0.250976602735
 47      -0.383011542373
 48      -0.383339011504
 49       0.082596090901
 50       0.196062783163
 Sym=     1a
 Ene= 8.83025717616979E-01
 Spin= Alpha
 Occup= 0.000000
  1      -0.000000001458
  2      -0.000000025274
  3      -0.000000235616
  4       0.000005710706
  5      -0.857320512799
  6      -0.000000016018
  7       0.000000349851
  8      -0.000007936824
  9       1.175811080999
 10       0.000000052001
 11       0.015459469256
 12       0.004582661218
 13       0.000000027174
 14      -0.000000113624
 15      -0.000000002053
 16      -0.000000010831
 17       0.000000298227
 18      -0.000004952624
 19       0.744132554686
 20       0.000000091860
 21      -0.000000391439
 22       0.000007684327
 23      -1.137241221098
 24       0.000000274147
 25       0.054185906228
 26       0.027153251455
 27       0.000000205084
 28      -0.000000332969
 29       0.000000002954
 30       0.000000006169
 31      -0.000000008876
 32      -0.000000361252
 33       0.052609474238
 34      -0.000000147140
 35       0.000000099301
 36      -0.000000708808
 37       0.109852812287
 38      -0.000000371019
 39      -0.046221008510
 40      -0.035948838423
 41      -0.000000260532
 42       0.000000270885
 43       0.000000057490
 44      -0.000000034098
 45      -0.000000040513
 46       0.000000056802
 47       0.000000025363
 48       0.000000049754
 49      -0.000000040052
 50      -0.000000022109
 Sym=     1a
 Ene= 9.34267960567139E-01
 Spin= Alpha
 Occup= 0.000000
  1      -0.082939048239
  2      -0.395719018377
  3       0.539128244892
  4      -0.014787778634
  5      -0.000000246746
  6       1.466716115095
  7      -0.367216617803
  8       0.166852837174
  9       0.000001123512
 10       0.151647993193
 11       0.000000381644
 12      -0.000001494515
 13      -0.038907871424
 14       0.043928931898
 15       0.046427565736
 16       0.044899356112
 17       0.606955984764
 18       0.248301203411
 19       0.000001418396
 20      -0.806708880265
 21      -0.215647745887
 22      -0.461215565437
 23      -0.000002871414
 24      -0.039180186436
 25      -0.000000454204
 26      -0.000000329261
 27       0.121187326001
 28      -0.060251545021
 29      -0.000389977067
 30       0.003150121283
 31       0.114270321110
 32       0.061068264718
 33       0.000000357927
 34       0.358776067808
 35      -0.123545337699
 36      -0.104771250171
 37      -0.000000655661
 38      -0.072736558896
 39       0.000000194545
 40       0.000001276423
 41      -0.072756278737
 42       0.032759602696
 43       0.161984474858
 44      -0.085347464441
 45       0.135020080878
 46      -0.060860155263
 47      -0.550294876126
 48      -0.053061473387
 49      -0.378527755195
 50      -0.191556132164
 Sym=     1a
 Ene= 1.07472824834556E+00
 Spin= Alpha
 Occup= 0.000000
  1      -0.022346861936
  2       0.013184597663
  3       0.157292640572
  4       0.232784856207
  5       0.000001468988
  6       0.601087098899
  7       0.132173243849
  8      -0.548672495616
  9      -0.000003637250
 10       0.027464390631
 11       0.000000166909
 12      -0.000000187289
 13      -0.020963661928
 14       0.021358795032
 15       0.057300060051
 16      -0.333341931810
 17      -0.079117778617
 18       0.240201348563
 19       0.000001653543
 20       0.633602439395
 21       0.820752620358
 22      -0.147007365596
 23      -0.000001328056
 24      -0.107905171186
 25       0.000000029156
 26       0.000001886044
 27      -0.101401024869
 28       0.009599643402
 29      -0.015044317130
 30       0.099896408458
 31      -0.555118002674
 32      -0.016626387094
 33       0.000000093797
 34      -0.393661041371
 35       0.385295055786
 36       0.587553533541
 37       0.000003691680
 38       0.096695390697
 39       0.000000562025
 40      -0.000001656401
 41       0.080482818458
 42       0.081477025759
 43      -0.807410958817
 44       0.511742754100
 45       0.466977654391
 46      -0.947060795389
 47      -0.090479355466
 48       0.295834738532
 49      -0.056762180789
 50      -0.283775275122
 Sym=     1a
 Ene= 1.13829389200082E+00
 Spin= Alpha
 Occup= 0.000000
  1       0.005083271841
  2      -0.077215243314
  3      -0.154746283715
  4       0.713526753688
  5       0.000004756464
  6       0.363285513971
  7       0.308689917495
  8      -1.271198261916
  9      -0.000008486043
 10      -0.016712398826
 11       0.000000963400
 12      -0.000000063842
 13       0.030884164371
 14       0.148358271100
 15       0.005618037084
 16      -0.606654661410
 17      -0.427849529102
 18       0.315744840224
 19       0.000002264867
 20       0.658052314969
 21       0.749593421059
 22      -0.668248947465
 23      -0.000004699972
 24      -0.000382047877
 25      -0.000001091420
 26       0.000000291779
 27      -0.034592428753
 28      -0.166884763676
 29      -0.013333252166
 30       0.058079609236
 31       0.304447252584
 32      -0.057222658076
 33      -0.000000429250
 34      -0.000347007513
 35      -0.471569130670
 36      -0.249040591562
 37      -0.000001504379
 38      -0.018922497970
 39      -0.000000398950
 40       0.000000060932
 41       0.026203150676
 42      -0.058202409209
 43       0.305587806881
 44      -0.061272554024
 45       0.403937030652
 46      -1.272003127300
 47      -0.344628900503
 48       1.128664837164
 49       0.313778062584
 50      -0.986565635581
 Sym=     1a
 Ene= 1.14260581561957E+00
 Spin= Alpha
 Occup= 0.000000
  1      -0.000984186379
  2      -0.317191679873
  3      -0.071235377071
  4      -0.875721770249
  5      -0.000005796472
  6       1.480316810672
  7       0.518405045732
  8       2.885986609277
  9       0.000018968560
 10      -0.005299345103
 11      -0.000000089400
 12      -0.000000270444
 13       0.048743526304
 14      -0.010153036995
 15       0.008031062576
 16      -0.517728501137
 17      -0.458901592215
 18       0.711889261923
 19       0.000004906714
 20       0.356830084912
 21       1.501073290680
 22      -2.869171883551
 23      -0.000019483505
 24       0.025871624317
 25       0.000000041333
 26      -0.000000028334
 27      -0.042195545260
 28      -0.001315631499
 29      -0.010820117552
 30       0.005113986987
 31       0.154600011078
 32       0.028402805596
 33       0.000000362217
 34       0.568724218943
 35      -0.509041022275
 36      -0.029044410345
 37      -0.000000217253
 38      -0.037926943405
 39       0.000000097762
 40       0.000000060851
 41       0.052856880660
 42       0.020472361242
 43       0.008031282467
 44       0.131869268970
 45       0.175246345314
 46      -2.091084458112
 47       0.101705061749
 48      -1.499081016852
 49      -0.195413009446
 50       1.470398001362
 Sym=     1a
 Ene= 1.22054741369998E+00
 Spin= Alpha
 Occup= 0.000000
  1      -0.045360654485
  2       0.974867406813
  3      -0.690802434092
  4      -0.021045109134
  5       0.000000053340
  6      -1.044458124855
  7       1.338247709167
  8       0.091197318861
  9       0.000000395818
 10       0.077595395421
 11      -0.000000039353
 12      -0.000002035516
 13       0.178758079941
 14       0.000312699135
 15      -0.002308906396
 16       0.469884441021
 17      -0.190433955700
 18      -0.037784219544
 19      -0.000000049291
 20      -1.478345986497
 21       0.639477937863
 22      -0.120024010017
 23      -0.000001560322
 24       0.028033418725
 25      -0.000000131935
 26      -0.000000038762
 27      -0.037865422159
 28      -0.021879785880
 29      -0.007756950894
 30       0.053025096362
 31      -0.046931209887
 32       0.180988042387
 33       0.000000231045
 34       0.049549184778
 35      -0.052190893434
 36      -0.245088120424
 37      -0.000000359380
 38      -0.010236909313
 39       0.000000096155
 40       0.000000020919
 41       0.020554670389
 42       0.016622258454
 43      -0.060848257476
 44       0.112499981580
 45      -0.042546531325
 46      -0.027559271951
 47      -0.641187535993
 48       1.184790023866
 49      -0.636821144006
 50       1.266187892741
 Sym=     1a
 Ene= 1.22366761067821E+00
 Spin= Alpha
 Occup= 0.000000
  1      -0.000000043058
  2       0.000001074077
  3      -0.000000652185
  4       0.000000228960
  5      -0.011927332294
  6      -0.000001353034
  7       0.000001138353
  8       0.000000866743
  9      -0.153269816422
 10      -0.000000376511
 11       0.015487280767
 12      -0.038770272088
 13      -0.000000080741
 14      -0.000000083990
 15      -0.000000004696
 16       0.000000650970
 17      -0.000000117476
 18       0.000000597772
 19      -0.126453774480
 20      -0.000001716752
 21       0.000000498412
 22      -0.000003445369
 23       0.555209433899
 24      -0.000000289773
 25       0.030257667637
 26      -0.026494624899
 27      -0.000000180471
 28      -0.000000218304
 29      -0.000000013850
 30       0.000000097504
 31       0.000000225750
 32      -0.000006000895
 33       0.955692571402
 34       0.000000040670
 35      -0.000000431594
 36       0.000007585332
 37      -1.210309441199
 38      -0.000000558995
 39      -0.002899275415
 40      -0.049754062450
 41      -0.000000324102
 42       0.000000027406
 43      -0.000000160202
 44       0.000000203592
 45      -0.000000250195
 46       0.000000495515
 47      -0.000000765901
 48       0.000001383872
 49      -0.000000467012
 50       0.000001031235
 Sym=     1a
 Ene= 1.32158726159979E+00
 Spin= Alpha
 Occup= 0.000000
  1      -0.006836615780
  2      -1.299108718955
  3      -0.291923097876
  4       0.022557516572
  5       0.000000235776
  6       3.898195314511
  7       1.510723907677
  8      -0.193923511254
  9      -0.000001824337
 10       0.008767733989
 11      -0.000000015436
 12      -0.000000859363
 13       0.114845027249
 14      -0.000805243704
 15       0.015803100279
 16       1.036757099196
 17      -0.257125133227
 18      -0.012079625362
 19      -0.000000024363
 20      -3.553307704897
 21       1.269556200876
 22       0.409222045315
 23       0.000002408432
 24      -0.048391342061
 25       0.000000010182
 26       0.000001779598
 27      -0.187392722667
 28       0.000705448846
 29       0.033549889828
 30      -0.290298238403
 31      -0.290644912936
 32      -0.261142675314
 33      -0.000001543102
 34       0.342509867141
 35       0.487446731180
 36       0.144368145736
 37       0.000000663655
 38      -0.150371881667
 39      -0.000000346787
 40       0.000001182339
 41       0.080673892690
 42      -0.033667125081
 43       0.447549176581
 44      -0.440378455150
 45       0.263273079318
 46       0.215720821419
 47      -0.101068765743
 48      -0.061322896825
 49      -0.067549283519
 50      -0.307215711921
 Sym=     1a
 Ene= 1.32479542079830E+00
 Spin= Alpha
 Occup= 0.000000
  1      -0.004410405361
  2      -1.068464308511
  3       0.083991658765
  4       0.121387891356
  5       0.000000780378
  6       4.130664781074
  7       0.889548682215
  8       0.175851031422
  9       0.000000884677
 10      -0.035093082019
 11       0.000000026756
 12      -0.000000153972
 13       0.081310163970
 14       0.013339113635
 15      -0.001076689711
 16       0.737390107245
 17      -0.249656865744
 18      -0.108408043628
 19      -0.000000588141
 20      -3.740996874280
 21       1.484204499856
 22      -0.884381811912
 23      -0.000006335188
 24       0.095775767185
 25      -0.000000431439
 26      -0.000000876103
 27      -0.032803858509
 28      -0.079865048692
 29      -0.056421410851
 30       0.430131415742
 31       0.091820484726
 32       0.640795981192
 33       0.000004062248
 34       0.034781567474
 35      -0.680136531166
 36      -1.025217725403
 37      -0.000006309091
 38       0.019629600130
 39       0.000000586176
 40      -0.000000364455
 41       0.017454664491
 42       0.085597274316
 43      -0.490460363556
 44       1.070559888352
 45      -0.258511433960
 46      -0.038374479352
 47      -0.051501659066
 48      -0.612191563323
 49       0.107023526326
 50      -0.548513648058
 Sym=     1a
 Ene= 1.40785972996935E+00
 Spin= Alpha
 Occup= 0.000000
  1       0.013034167520
  2       0.169282895455
  3      -0.027769406041
  4      -0.053861204995
  5      -0.000000358906
  6      -1.286187376698
  7      -0.539182994712
  8       2.379367535967
  9       0.000015968940
 10      -0.004342435421
 11       0.000001222089
 12       0.000000170403
 13      -0.019179839080
 14       0.182680234153
 15      -0.021068986442
 16      -0.276864382551
 17       0.018017406620
 18       0.121187935091
 19       0.000000844434
 20       1.592628575108
 21      -0.681423325996
 22      -2.136372157860
 23      -0.000014080676
 24       0.050030687657
 25       0.000000539322
 26      -0.000000879778
 27       0.030888619482
 28       0.082377770901
 29      -0.014893677129
 30       0.164329560017
 31      -0.438228106663
 32       0.032381546645
 33       0.000000226737
 34       0.437163663951
 35       0.428749403585
 36      -0.262534598402
 37      -0.000001568049
 38      -0.084272290880
 39      -0.000000054168
 40       0.000001421877
 41      -0.062299310942
 42      -0.010590583307
 43       0.144235800275
 44       0.193914619410
 45      -0.616248228729
 46      -0.621568733044
 47      -0.603566919029
 48      -0.602635538146
 49       0.731125478141
 50       0.613339677748
 Sym=     1a
 Ene= 1.52890132696897E+00
 Spin= Alpha
 Occup= 0.000000
  1       0.013253973578
  2       0.385038961005
  3       0.086636903771
  4      -0.107238776779
  5      -0.000000747575
  6      -3.116331370227
  7      -1.533535057783
  8      -0.247320924975
  9      -0.000001234453
 10      -0.041181523768
 11      -0.000000088566
 12       0.000001035252
 13      -0.082039979230
 14      -0.024543846888
 15      -0.020629509142
 16      -0.496649676961
 17       0.197624145775
 18       0.036375197758
 19       0.000000116816
 20       1.848114098700
 21      -2.882516381113
 22       0.280600398913
 23       0.000002974898
 24      -0.031076427835
 25      -0.000001249738
 26       0.000000575544
 27      -0.010555636407
 28      -0.176724173915
 29       0.021904066485
 30      -0.335199158552
 31      -0.327232073492
 32       0.658470837765
 33       0.000004451382
 34       0.523011340542
 35       0.814275670958
 36      -1.808929329527
 37      -0.000012168416
 38      -0.086158949705
 39      -0.000001017761
 40      -0.000000115113
 41       0.177170571645
 42      -0.129361934322
 43       0.428992684207
 44       0.610981954289
 45       0.293705531828
 46       0.426638403718
 47       0.281046988761
 48      -0.180514578058
 49      -0.071567918585
 50      -0.130603727492
 Sym=     1a
 Ene= 1.65663887238945E+00
 Spin= Alpha
 Occup= 0.000000
  1       0.000000001762
  2       0.000000009908
  3       0.000000067930
  4      -0.000001297825
  5       0.197175996863
  6      -0.000000268104
  7      -0.000000200350
  8       0.000000674773
  9      -0.061924678959
 10       0.000001401437
 11      -0.435619187666
 12       0.104855941518
 13       0.000000528258
 14       0.000002918146
 15      -0.000000003381
 16      -0.000000044038
 17       0.000000018762
 18      -0.000000051660
 19       0.007986751084
 20       0.000000248733
 21      -0.000000266540
 22      -0.000000551159
 23       0.047827945396
 24       0.000002310811
 25       0.524767914117
 26       0.233961885806
 27       0.000001669306
 28      -0.000003352329
 29      -0.000000000162
 30      -0.000000015346
 31      -0.000000072624
 32       0.000000311893
 33      -0.044181063942
 34       0.000000126554
 35       0.000000058143
 36       0.000000526009
 37      -0.105167554837
 38      -0.000004664490
 39      -0.129918612299
 40      -0.417526256335
 41      -0.000002723296
 42       0.000000669391
 43       0.000000068393
 44       0.000000048446
 45      -0.000000052268
 46      -0.000000034089
 47      -0.000000060870
 48      -0.000000115942
 49       0.000000085575
 50       0.000000033766
 Sym=     1a
 Ene= 1.74122639201767E+00
 Spin= Alpha
 Occup= 0.000000
  1       0.000000002839
  2      -0.000000108348
  3      -0.000000091576
  4       0.000000459048
  5      -0.064109915334
  6       0.000000301078
  7       0.000000183658
  8       0.000000221218
  9      -0.038674392945
 10       0.000004511767
 11       0.253515604125
 12       0.402516722757
 13       0.000002782401
 14      -0.000001592553
 15      -0.000000001427
 16      -0.000000002914
 17      -0.000000133968
 18       0.000001226521
 19      -0.176074757815
 20       0.000000151271
 21       0.000000410816
 22      -0.000000673128
 23       0.130372220928
 24       0.000007357363
 25      -0.279678597395
 26       0.626962407986
 27       0.000004076556
 28       0.000002187637
 29      -0.000000012858
 30       0.000000427573
 31      -0.000000030863
 32      -0.000000093162
 33       0.010624046301
 34      -0.000000810528
 35       0.000000086864
 36       0.000001049905
 37      -0.132345946122
 38      -0.000000336648
 39      -0.370881981776
 40      -0.052216317853
 41      -0.000000634345
 42       0.000002434125
 43       0.000000014771
 44       0.000000080994
 45       0.000000048212
 46      -0.000000089093
 47      -0.000000022341
 48       0.000000030397
 49       0.000000042347
 50       0.000000004602
 Sym=     1a
 Ene= 1.96715593902382E+00
 Spin= Alpha
 Occup= 0.000000
  1       0.020848653113
  2       0.210110028739
  3      -0.070694378624
  4       0.101075381316
  5       0.000000713245
  6      -1.557576660930
  7      -0.464980430939
  8      -1.656094182176
  9      -0.000010793554
 10       0.094374937356
 11      -0.000000831422
 12      -0.000001629685
 13       0.009011722924
 14      -0.123499057454
 15      -0.018303091587
 16      -0.297175057137
 17       0.091780354005
 18       0.014536396384
 19       0.000000046627
 20       2.561355182679
 21      -0.297604070817
 22       2.599798333220
 23       0.000017158578
 24       0.039505251991
 25       0.000001120100
 26      -0.000000499872
 27      -0.006778626139
 28       0.166128769835
 29      -0.021089161471
 30       1.577968538725
 31      -0.139924741888
 32      -0.053027020910
 33      -0.000000289123
 34      -3.773746180609
 35       1.178516289364
 36       0.487699576875
 37       0.000002693221
 38      -0.388265918105
 39      -0.000000146280
 40       0.000004215534
 41       0.024288967486
 42       0.037798499415
 43       0.327832121367
 44       0.215470128752
 45       0.341483781942
 46       0.638585056611
 47       0.317855891571
 48       0.604729039221
 49      -0.106135043312
 50      -0.437089760742
 Sym=     1a
 Ene= 2.00400033350733E+00
 Spin= Alpha
 Occup= 0.000000
  1       0.000000010014
  2       0.000000153951
  3      -0.000000007376
  4       0.000000225844
  5      -0.022158578838
  6      -0.000000825971
  7      -0.000000240089
  8      -0.000001369173
  9       0.034747448873
 10       0.000009095768
 11       0.036901195921
 12       0.789188977699
 13       0.000005242248
 14      -0.000000131030
 15      -0.000000005012
 16      -0.000000106422
 17       0.000000091449
 18      -0.000000338228
 19       0.051693130490
 20       0.000001116862
 21      -0.000000208281
 22       0.000001596915
 23      -0.009828525503
 24      -0.000001593050
 25       0.031360802396
 26      -0.143469077772
 27      -0.000000932578
 28      -0.000000202502
 29      -0.000000007738
 30       0.000000734204
 31      -0.000000021784
 32      -0.000000329314
 33       0.047364281915
 34      -0.000001858120
 35       0.000000553155
 36       0.000000332198
 37      -0.019323632816
 38      -0.000002027701
 39       0.579267757763
 40      -0.129056468221
 41      -0.000000529057
 42      -0.000003805105
 43       0.000000169633
 44       0.000000113494
 45       0.000000245059
 46       0.000000443611
 47       0.000000216526
 48       0.000000425686
 49      -0.000000094713
 50      -0.000000337981
 Sym=     1a
 Ene= 2.05890933803275E+00
 Spin= Alpha
 Occup= 0.000000
  1      -0.000000016874
  2       0.000000222928
  3       0.000000248165
  4      -0.000000361759
  5       0.063905435694
  6       0.000000838174
  7       0.000000038249
  8       0.000000711486
  9      -0.129163064180
 10       0.000004697725
 11      -0.366035918271
 12       0.404670623592
 13       0.000002385450
 14       0.000002467386
 15      -0.000000005439
 16      -0.000000014101
 17       0.000000145621
 18      -0.000000933418
 19       0.130963996751
 20       0.000000167371
 21       0.000001283371
 22      -0.000001031164
 23       0.131512398718
 24      -0.000002777640
 25       0.117546631463
 26      -0.213384188588
 27      -0.000001720084
 28      -0.000000931508
 29       0.000000004534
 30       0.000000136114
 31       0.000000235286
 32      -0.000000417120
 33       0.053628629681
 34      -0.000000549763
 35      -0.000000319819
 36       0.000001239798
 37      -0.115937976048
 38       0.000007663338
 39      -0.433726719538
 40       0.681949388194
 41       0.000004813218
 42       0.000003130471
 43      -0.000000073804
 44      -0.000000057702
 45      -0.000000484688
 46      -0.000000326990
 47      -0.000000150005
 48       0.000000071545
 49      -0.000000133567
 50      -0.000000103099
 Sym=     1a
 Ene= 2.08544688800892E+00
 Spin= Alpha
 Occup= 0.000000
  1       0.021955244285
  2      -0.197627809257
  3      -0.213312975797
  4      -0.060769491559
  5      -0.000000248458
  6      -1.028649650165
  7      -0.069010050622
  8      -0.272102391251
  9      -0.000001959582
 10       0.254801982171
 11       0.000000008772
 12      -0.000004076793
 13       0.214582630953
 14       0.061103029358
 15       0.013524648044
 16       0.099833986199
 17      -0.089057866158
 18       0.081392690418
 19       0.000000710639
 20      -0.247057805625
 21      -1.403614172213
 22       0.650267201758
 23       0.000005009297
 24       0.415856394982
 25       0.000000488808
 26      -0.000007549453
 27       0.389972315249
 28       0.030258150819
 29      -0.010941912706
 30       0.061878322643
 31      -0.272014457145
 32       0.029204588093
 33       0.000000359911
 34       0.162808073882
 35       0.460861141322
 36      -0.522096856654
 37      -0.000003721773
 38       0.345122175513
 39      -0.000000138613
 40       0.000000132075
 41      -0.527380527572
 42      -0.045987731349
 43       0.153551782865
 44       0.114590052810
 45       0.666387673329
 46       0.537692859829
 47       0.316998267948
 48       0.070062214304
 49       0.115655746788
 50      -0.017143171124
 Sym=     1a
 Ene= 2.23119101052242E+00
 Spin= Alpha
 Occup= 0.000000
  1       0.012356098219
  2       0.434830338781
  3       0.365764998359
  4       0.007460504329
  5      -0.000000068667
  6       0.176578190410
  7       0.181185499492
  8       0.477466155231
  9       0.000003147866
 10       0.586343027499
 11       0.000000279252
 12      -0.000006750928
 13      -0.008791282051
 14      -0.020387324462
 15       0.028397331806
 16       0.486611202577
 17      -0.000671291427
 18       0.061587034574
 19       0.000000368852
 20      -1.074312120863
 21       0.595469060387
 22      -0.788468274400
 23      -0.000005417914
 24       0.547499773724
 25       0.000000181326
 26      -0.000004886222
 27      -0.189960945210
 28      -0.030226174344
 29      -0.006707820622
 30      -0.018869442108
 31       0.042608513026
 32      -0.125698339293
 33      -0.000000852570
 34       0.371366340177
 35      -0.253525410436
 36      -0.072387152552
 37      -0.000000336125
 38       0.150498483356
 39       0.000000280565
 40      -0.000005288389
 41       0.532106243301
 42       0.062543475083
 43       0.196576570504
 44       0.084801628434
 45      -0.054533632987
 46      -0.226200035657
 47       0.130011211190
 48      -0.094831525505
 49       0.309113068147
 50       0.209569830348
 Sym=     1a
 Ene= 2.31650812131662E+00
 Spin= Alpha
 Occup= 0.000000
  1      -0.000997166552
  2       0.077776129133
  3       0.028778864188
  4       0.252689265984
  5       0.000001666803
  6      -0.262226990596
  7      -0.186223749170
  8       0.357680602137
  9       0.000002399355
 10      -0.008769509160
 11      -0.000004133575
 12       0.000001121066
 13      -0.132427315853
 14      -0.624507045416
 15      -0.000986112059
 16      -0.071284305512
 17      -0.116288277223
 18       0.172261601198
 19       0.000001204189
 20       0.078627796381
 21      -0.236897474056
 22       0.124607783319
 23       0.000000941045
 24       0.046734175413
 25       0.000004387761
 26      -0.000000047542
 27      -0.119360905113
 28       0.652132501258
 29       0.034039072581
 30      -0.297309614694
 31       0.152196981384
 32       0.294506904939
 33       0.000001872839
 34       0.097448899155
 35       0.081948383203
 36      -0.367624108857
 37      -0.000002460622
 38       0.082583233694
 39       0.000000966358
 40      -0.000000331238
 41      -0.087721968250
 42       0.131461815131
 43       0.234982275050
 44      -0.043281239111
 45       0.504360726316
 46      -0.050843614846
 47      -0.566402835208
 48       0.035671410132
 49       0.456945536407
 50      -0.005107941300
 Sym=     1a
 Ene= 2.49167628626396E+00
 Spin= Alpha
 Occup= 0.000000
  1      -0.013231636902
  2       0.111284456084
  3       0.026747742443
  4      -0.081193700626
  5      -0.000000566800
  6       0.183623342830
  7      -0.381205503506
  8      -0.391755051136
  9      -0.000002615281
 10      -0.317209371222
 11       0.000001343490
 12       0.000008448314
 13      -0.748133462435
 14       0.235936386329
 15       0.007231697984
 16       0.481588058336
 17      -0.217036116362
 18       0.032865292958
 19       0.000000352678
 20      -0.077662592796
 21       0.069433529519
 22       0.669603487827
 23       0.000004597979
 24       0.215852401579
 25       0.000000037557
 26       0.000000287456
 27      -0.379790752644
 28      -0.009679202447
 29       0.003356028141
 30       0.416998266875
 31      -0.083905693988
 32      -0.021809627705
 33      -0.000000059296
 34      -1.010291454650
 35       0.505661071476
 36      -0.183754921404
 37      -0.000001554039
 38       0.349056181103
 39       0.000001173232
 40      -0.000002154631
 41      -0.256168496682
 42       0.090387836458
 43       0.459324259137
 44       0.093442969998
 45       0.075715383647
 46       0.297566742552
 47      -0.168993481128
 48       0.047930498529
 49      -0.615033259117
 50      -0.045966220942
 Sym=     1a
 Ene= 2.57867810892336E+00
 Spin= Alpha
 Occup= 0.000000
  1      -0.000000007799
  2      -0.000000090470
  3       0.000000035804
  4       0.000000432344
  5      -0.059208731697
  6       0.000000711883
  7       0.000000337812
  8       0.000002167805
  9      -0.260064385338
 10      -0.000001806106
 11      -0.668510532595
 12      -0.189398419098
 13      -0.000001152643
 14       0.000004216673
 15       0.000000010446
 16      -0.000000083235
 17       0.000000204855
 18      -0.000001235808
 19       0.188326638030
 20      -0.000000730273
 21       0.000000556560
 22      -0.000003484126
 23       0.409912548396
 24       0.000007563649
 25      -0.373202437694
 26       0.646616519585
 27       0.000004313167
 28       0.000002646795
 29      -0.000000009140
 30      -0.000000278399
 31       0.000000068035
 32      -0.000000597953
 33       0.083834186386
 34       0.000000893392
 35      -0.000000591426
 36       0.000002223351
 37      -0.311971893249
 38       0.000003566638
 39       0.530555571193
 40       0.364369774145
 41       0.000002818657
 42      -0.000003409050
 43      -0.000000333860
 44      -0.000000066180
 45      -0.000000139326
 46      -0.000000292274
 47      -0.000000074138
 48      -0.000000113301
 49       0.000000263574
 50       0.000000072913
 Sym=     1a
 Ene= 2.67579621594304E+00
 Spin= Alpha
 Occup= 0.000000
  1      -0.052999257911
  2      -0.355593674748
  3       0.028275509464
  4       0.030179005400
  5       0.000000207848
  6       2.203592906371
  7       0.877408716872
  8       0.328532783362
  9       0.000001936853
 10      -0.734737774502
 11      -0.000002126053
 12       0.000007807989
 13       0.102754003686
 14      -0.285037074935
 15       0.037373979852
 16       0.255111795374
 17       0.360846393524
 18       0.217410696577
 19       0.000001268935
 20      -1.712812206585
 21       0.970440476812
 22      -0.492396558560
 23      -0.000003623377
 24       0.485728344077
 25      -0.000000072678
 26      -0.000008149632
 27       0.393906869999
 28      -0.053302770418
 29      -0.015215665479
 30       0.181569064915
 31      -0.091676363367
 32      -0.214723110241
 33      -0.000001379075
 34       0.083002424976
 35      -0.134837775860
 36       0.411260413382
 37       0.000002778915
 38       0.125448374932
 39      -0.000000897033
 40      -0.000004715026
 41       0.508749039445
 42      -0.106471413060
 43       0.009748937838
 44      -0.133244834610
 45       0.191839733980
 46      -0.306752798744
 47      -0.516750173545
 48      -0.029207090613
 49      -0.126473078914
 50       0.052987758748
 Sym=     1a
 Ene= 2.80746335956063E+00
 Spin= Alpha
 Occup= 0.000000
  1      -0.018466807104
  2       0.020178260848
  3       0.192741807172
  4      -0.028492569027
  5      -0.000000232135
  6       0.054755233985
  7       0.321685796513
  8      -0.194455317501
  9      -0.000001378653
 10      -0.175665832787
 11       0.000000741296
 12      -0.000001950937
 13       0.588476505551
 14       0.148732809454
 15      -0.011902411149
 16      -0.389530546355
 17       0.529199234482
 18       0.041126267524
 19       0.000000098869
 20       0.550224729770
 21       0.003852442794
 22       0.691832774019
 23       0.000004550959
 24      -0.261437135562
 25       0.000000975714
 26       0.000005232459
 27      -0.337530702485
 28       0.140795654109
 29       0.031274442964
 30       0.542505378961
 31      -0.002371446071
 32       0.073685983340
 33       0.000000489217
 34      -1.720793862663
 35       0.818269261815
 36      -0.320332913195
 37      -0.000002469902
 38       0.693521146467
 39       0.000004012289
 40      -0.000009375838
 41       0.223680909045
 42       0.542556511091
 43       1.170121553356
 44      -0.041496105914
 45      -0.101417592427
 46       0.180326373129
 47       0.201648379826
 48       0.050580394867
 49       0.030554144862
 50       0.013564436540
 Sym=     1a
 Ene= 2.88464556271538E+00
 Spin= Alpha
 Occup= 0.000000
  1       0.000000007846
  2       0.000000003525
  3      -0.000000015081
  4      -0.000000895877
  5       0.136841969995
  6      -0.000000237521
  7      -0.000000093812
  8      -0.000000745758
  9       0.105994846568
 10      -0.000001420171
 11       0.623164989603
 12      -0.102847797118
 13      -0.000000572322
 14      -0.000004149843
 15      -0.000000002050
 16       0.000000076012
 17      -0.000000089632
 18       0.000000051342
 19      -0.006326501816
 20       0.000000121106
 21      -0.000000116071
 22      -0.000000127021
 23       0.026316279672
 24       0.000004762669
 25       0.881068187782
 26       0.469017294394
 27       0.000003372644
 28      -0.000005647077
 29      -0.000000005686
 30      -0.000000017917
 31      -0.000000012420
 32      -0.000000120112
 33       0.014949052052
 34       0.000000114333
 35      -0.000000130125
 36       0.000001695862
 37      -0.250892708720
 38       0.000006229367
 39       0.336745438945
 40       0.580162077197
 41       0.000003794860
 42      -0.000002101756
 43      -0.000000187800
 44       0.000000021664
 45       0.000000001180
 46       0.000000052187
 47       0.000000010734
 48       0.000000016389
 49       0.000000005342
 50      -0.000000019527
 Sym=     1a
 Ene= 3.03362377985393E+00
 Spin= Alpha
 Occup= 0.000000
  1      -0.035859816828
  2       0.028353393524
  3       0.312580535714
  4       0.046287238756
  5       0.000000210760
  6       1.541979069308
  7       0.648574384420
  8       0.023379379923
  9      -0.000000068063
 10      -0.295497386182
 11       0.000004258997
 12       0.000001507084
 13       0.256570934333
 14       0.675930511761
 15       0.057708320439
 16      -0.495831091044
 17      -0.140702337621
 18      -0.536298253336
 19      -0.000003424042
 20      -2.324155381338
 21       0.523147878692
 22      -0.717119846702
 23      -0.000004813305
 24       0.636949842764
 25       0.000002491476
 26      -0.000007200559
 27      -0.016339497581
 28       0.309715653452
 29      -0.017554414899
 30      -0.745073292309
 31       0.084996634321
 32       0.104342787520
 33       0.000000650513
 34       1.902075241085
 35      -0.873071746665
 36      -0.783989285595
 37      -0.000004799587
 38      -0.517081320954
 39       0.000003566611
 40       0.000005577623
 41       0.010072985521
 42       0.599933323922
 43      -0.100076436448
 44       0.069588751544
 45       0.381909500359
 46      -0.301622473593
 47       0.213833020373
 48      -0.115777375556
 49      -0.357286187296
 50       0.052345412290
 Sym=     1a
 Ene= 3.20833221666224E+00
 Spin= Alpha
 Occup= 0.000000
  1      -0.037246366473
  2       0.380327010304
  3       0.663328487554
  4       0.023620865610
  5      -0.000000054953
  6       1.397321771741
  7       0.843389935986
  8      -0.196577840689
  9      -0.000001543740
 10      -0.331669876360
 11       0.000000278885
 12      -0.000000792717
 13       0.691953977574
 14       0.102066132068
 15       0.034022081575
 16       0.111609602663
 17       0.814694108329
 18       0.355679982685
 19       0.000002041461
 20      -1.050773432013
 21       1.140966672306
 22       0.358306914303
 23       0.000001946737
 24       0.252716674654
 25       0.000002769239
 26       0.000003357449
 27      -0.976999499856
 28       0.356200854781
 29       0.015144907076
 30       0.139052244717
 31       0.093324243582
 32       0.020319678845
 33       0.000000099207
 34      -0.663554592620
 35       0.130957126723
 36       0.808027637211
 37       0.000005220060
 38       0.017163654343
 39      -0.000005571140
 40       0.000001915398
 41      -0.275874511884
 42      -0.870466346755
 43      -0.579409596473
 44      -0.052334684649
 45       0.038506444391
 46      -0.031824193446
 47       0.084299242684
 48       0.124941404757
 49      -0.021895812516
 50       0.020268215423
 Sym=     1a
 Ene= 3.34480416944860E+00
 Spin= Alpha
 Occup= 0.000000
  1      -0.022908847610
  2       0.221562372433
  3       0.392190647731
  4      -0.100704738268
  5      -0.000000777468
  6       0.401851983258
  7       0.170652616333
  8       0.490715011148
  9       0.000003179721
 10      -0.188524272789
 11      -0.000004527388
 12       0.000000041358
 13       0.346859743135
 14      -0.657308178311
 15       0.049004054720
 16      -0.591020925700
 17      -0.075225102625
 18      -0.420363165481
 19      -0.000002692695
 20      -1.547675779764
 21      -0.353799991451
 22      -0.751468929348
 23      -0.000004779727
 24       0.487324481534
 25      -0.000006500209
 26      -0.000002219740
 27      -0.442450191523
 28      -1.059971177998
 29      -0.046645378450
 30      -0.352187086009
 31      -0.136743186795
 32      -0.127670393413
 33      -0.000000783146
 34       1.700308324259
 35      -0.450837639037
 36      -1.085155568526
 37      -0.000006873685
 38      -0.335356686608
 39       0.000004308048
 40       0.000006709448
 41      -0.493249119483
 42       0.668426472697
 43       0.109591574319
 44       0.158549722752
 45      -0.277744139504
 46       0.141305186358
 47      -0.284727211908
 48      -0.123523616600
 49       0.308731467061
 50       0.029187051631
