[Molden Format]
[Title]
 Molden file created by orca_2mkl for BaseName=input

[Atoms] AU
C    1   6          0.0000000000         0.0000000000         0.0000000000 
C    2   6          2.6844680340         0.0000000000         0.0000000000 
O    3   8          3.4616501970         2.2338342831         0.0000000000 
H    4   1          1.1841948776         2.5891328000        -0.3598779968 
H    5   1          4.0391085791        -1.5261472278        -0.0736553185 
H    6   1         -0.7013212705         0.5414398537         1.8484423857 
H    7   1         -1.0421922223        -1.5529608068        -0.8098545480 
[GTO]
  1 0
s   6 1.0 
     3047.5249000000         0.5363343823
      457.3695100000         0.9894506076
      103.9486900000         1.5972822308
       29.2101550000         2.0791870615
        9.2866630000         1.7741742532
        3.1639270000         0.6125798260
s   3 1.0 
        7.8682724000        -0.3995563516
        1.8812885000        -0.1841552393
        0.5442493000         0.5163903794
p   3 1.0 
        7.8682724000         1.2960827175
        1.8812885000         0.9937536282
        0.5442493000         0.4959527138
s   1 1.0 
        0.1687144000         0.1876178721
p   1 1.0 
        0.1687144000         0.1541275509
d   1 1.0 
        0.8000000000         1.9292013661

  2 0
s   6 1.0 
     3047.5249000000         0.5363343823
      457.3695100000         0.9894506076
      103.9486900000         1.5972822308
       29.2101550000         2.0791870615
        9.2866630000         1.7741742532
        3.1639270000         0.6125798260
s   3 1.0 
        7.8682724000        -0.3995563516
        1.8812885000        -0.1841552393
        0.5442493000         0.5163903794
p   3 1.0 
        7.8682724000         1.2960827175
        1.8812885000         0.9937536282
        0.5442493000         0.4959527138
s   1 1.0 
        0.1687144000         0.1876178721
p   1 1.0 
        0.1687144000         0.1541275509
d   1 1.0 
        0.8000000000         1.9292013661

  3 0
s   6 1.0 
     5484.6717000000         0.8317352088
      825.2349500000         1.5308074829
      188.0469600000         2.4771490916
       52.9645000000         3.2562802462
       16.8975700000         2.7928936336
        5.7996353000         0.9549376963
s   3 1.0 
       15.5396160000        -0.6179336976
        3.5999336000        -0.2757210088
        1.0137618000         0.8142076427
p   3 1.0 
       15.5396160000         3.1169455889
        3.5999336000         2.4014372483
        1.0137618000         1.0543605133
s   1 1.0 
        0.2700058000         0.2669561389
p   1 1.0 
        0.2700058000         0.2774319373
d   1 1.0 
        0.8000000000         1.9292013661

  4 0
s   3 1.0 
       18.7311370000         0.2149354183
        2.8253937000         0.3645711272
        0.6401217000         0.4150514277
s   1 1.0 
        0.1612778000         0.1813806839

  5 0
s   3 1.0 
       18.7311370000         0.2149354183
        2.8253937000         0.3645711272
        0.6401217000         0.4150514277
s   1 1.0 
        0.1612778000         0.1813806839

  6 0
s   3 1.0 
       18.7311370000         0.2149354183
        2.8253937000         0.3645711272
        0.6401217000         0.4150514277
s   1 1.0 
        0.1612778000         0.1813806839

  7 0
s   3 1.0 
       18.7311370000         0.2149354183
        2.8253937000         0.3645711272
        0.6401217000         0.4150514277
s   1 1.0 
        0.1612778000         0.1813806839

[5D]
[7F]
[9G]
[MO]
 Sym=     1a
 Ene= -2.06000694178601E+01
 Spin= Alpha
 Occup= 2.000000
  1       0.000016818085
  2      -0.000049598950
  3      -0.000273785720
  4       0.000043938957
  5      -0.000043551214
  6      -0.002308079426
  7      -0.001259320196
  8      -0.001330910547
  9       0.000070997901
 10      -0.000050116521
 11       0.000044445158
 12       0.000056450573
 13      -0.000150779335
 14      -0.000073082001
 15       0.000096656639
 16       0.000000714385
 17       0.000059425084
 18       0.000173682005
 19      -0.000023380754
 20       0.006525181067
 21      -0.000775652723
 22       0.004009678273
 23       0.000056859712
 24       0.000089356921
 25      -0.000019569963
 26       0.000003349921
 27       0.000411379099
 28      -0.000402260297
 29       0.995846095467
 30       0.022933543781
 31      -0.001113546930
 32      -0.001551647698
 33       0.000069807406
 34      -0.011852420555
 35       0.002267312440
 36       0.002956704272
 37       0.000100331339
 38       0.000112229276
 39      -0.000004570870
 40       0.000008085065
 41      -0.000020534638
 42      -0.000074982746
 43       0.000652842111
 44       0.001331014571
 45      -0.000193220871
 46       0.000833192819
 47       0.000132139881
 48      -0.000203395804
 49      -0.000101428262
 50      -0.000310412285
 Sym=     1a
 Ene= -1.13572094540330E+01
 Spin= Alpha
 Occup= 2.000000
  1       0.002920007810
  2      -0.000349958186
  3      -0.000384869920
  4       0.000011137456
  5       0.000060153802
  6       0.002206817150
  7       0.001334343504
  8      -0.000817442271
  9      -0.000473819099
 10       0.000209323703
 11       0.000019104640
 12       0.000013911526
 13      -0.000298805066
 14      -0.000100268121
 15       0.996171152712
 16       0.024186446077
 17       0.000502382529
 18       0.001529880899
 19      -0.000132233426
 20      -0.009167726497
 21       0.000700230174
 22       0.001656416290
 23       0.000219820761
 24      -0.001048420967
 25      -0.000070369316
 26       0.000019518367
 27      -0.000367220207
 28       0.000165029574
 29      -0.000227725276
 30       0.000573201785
 31      -0.000044717047
 32      -0.000007430509
 33       0.000005487680
 34      -0.002117059861
 35       0.000984159592
 36       0.001758824415
 37       0.000018495129
 38       0.000565943193
 39      -0.000041549729
 40      -0.000004913293
 41       0.000375377891
 42      -0.000364218971
 43       0.000292383012
 44       0.000517581707
 45      -0.000431404531
 46       0.002702935762
 47      -0.000098142807
 48       0.000723592563
 49      -0.000190819706
 50      -0.000114901311
 Sym=     1a
 Ene= -1.11939215997752E+01
 Spin= Alpha
 Occup= 2.000000
  1       0.996132917902
  2       0.025282708603
  3       0.000722924208
  4      -0.000388082259
  5       0.000642171851
  6      -0.015400299644
  7      -0.001570356176
  8       0.000085507055
  9      -0.001482268172
 10      -0.000113463950
 11      -0.000001993377
 12       0.000112260220
 13       0.000209393054
 14       0.000225843564
 15      -0.003148938882
 16      -0.000584616886
 17       0.000265519529
 18      -0.000027435353
 19      -0.000000813776
 20       0.003722440412
 21      -0.001753249438
 22      -0.001159699557
 23       0.000299051823
 24       0.000327357283
 25      -0.000046236300
 26      -0.000044065244
 27      -0.000386448219
 28      -0.000000140893
 29       0.000000167645
 30      -0.000105664941
 31      -0.000047741444
 32       0.000092327111
 33       0.000017933381
 34       0.000294707133
 35       0.000232523625
 36      -0.000621758119
 37       0.000026550300
 38      -0.000063291882
 39      -0.000046552757
 40       0.000013805144
 41       0.000008895665
 42       0.000107905181
 43       0.000203433350
 44       0.001796538169
 45      -0.000194620025
 46      -0.000343135003
 47      -0.000080338166
 48       0.003370827049
 49      -0.000337853315
 50       0.002388288219
 Sym=     1a
 Ene= -1.44667851700573E+00
 Spin= Alpha
 Occup= 2.000000
  1       0.024639125546
  2      -0.045852543267
  3      -0.035870012754
  4      -0.012448159353
  5      -0.001015525732
  6      -0.043916502638
  7      -0.012598268940
  8      -0.015164242683
  9      -0.000360703749
 10       0.002606866230
 11       0.000362353294
 12      -0.000177970606
 13      -0.005018386323
 14      -0.001606095218
 15       0.104689551351
 16      -0.199324025294
 17      -0.034847799415
 18      -0.151719198151
 19      -0.000532287658
 20      -0.033276030107
 21      -0.011028389722
 22       0.031496964177
 23       0.000181292819
 24       0.017828792275
 25       0.000168680328
 26      -0.000266181430
 27       0.020273106517
 28      -0.013365979926
 29       0.194863023304
 30      -0.420165188042
 31       0.070360701504
 32       0.109286501248
 33       0.005512745575
 34      -0.437224506478
 35       0.053857519985
 36       0.050176129727
 37       0.004001471492
 38       0.011553693587
 39      -0.002222627387
 40       0.000435567267
 41       0.000203891372
 42      -0.008164882039
 43      -0.062913160014
 44       0.013825526840
 45      -0.025597463721
 46       0.013680743566
 47      -0.008117628752
 48      -0.000891294407
 49      -0.005060805081
 50      -0.001353584889
 Sym=     1a
 Ene= -1.00052475021569E+00
 Spin= Alpha
 Occup= 2.000000
  1      -0.163407984123
  2       0.297261226187
  3       0.091461876147
  4      -0.016901075105
  5       0.024704929696
  6       0.295144385790
  7       0.028634963408
  8       0.014518712613
  9       0.019984913748
 10      -0.003804628747
 11      -0.002210602492
 12       0.007933133837
 13       0.007699539039
 14       0.005895845517
 15      -0.105734221338
 16       0.222270197760
 17      -0.179038588725
 18      -0.087395521175
 19       0.002505962777
 20       0.151399699888
 21      -0.030182128818
 22      -0.020042211234
 23      -0.002219041404
 24      -0.009630016784
 25       0.000054391595
 26      -0.000259193104
 27       0.019098651585
 28      -0.013832260862
 29       0.080196559227
 30      -0.183530902698
 31      -0.065323499751
 32      -0.040414026496
 33       0.001653441148
 34      -0.229642778494
 35      -0.025269016304
 36      -0.021105264870
 37       0.001508798375
 38      -0.001903276948
 39      -0.001213201726
 40       0.000114761110
 41      -0.001169447851
 42       0.007536464704
 43       0.036046955758
 44      -0.000342075729
 45       0.061314649206
 46       0.015353350696
 47       0.100280662940
 48       0.010937848150
 49       0.092030570065
 50       0.029527867693
 Sym=     1a
 Ene= -8.36552381427993E-01
 Spin= Alpha
 Occup= 2.000000
  1       0.067780247044
  2      -0.118776468314
  3       0.045007317846
  4      -0.042973437037
  5      -0.025022095667
  6      -0.165838373731
  7      -0.002774274958
  8      -0.019919860694
  9      -0.010508353609
 10      -0.002934943182
 11       0.003200477078
 12      -0.005647178303
 13       0.006040748280
 14      -0.008313337227
 15      -0.120730816372
 16       0.261963144808
 17       0.227148035160
 18      -0.127332532943
 19      -0.007068597016
 20       0.256984241630
 21       0.053240657686
 22      -0.063009735691
 23      -0.002773622119
 24      -0.012478664483
 25      -0.001565606452
 26       0.002268736279
 27      -0.002460228190
 28      -0.007764666582
 29       0.039991741231
 30      -0.086371427991
 31       0.132329184300
 32      -0.217775335367
 33       0.014778202307
 34      -0.150419674715
 35       0.086819653779
 36      -0.111967929177
 37       0.008522930781
 38       0.001783245614
 39      -0.002124183296
 40       0.000330858493
 41      -0.025010622324
 42       0.001607656951
 43      -0.107504752775
 44      -0.048300136675
 45       0.219331169612
 46       0.089584597149
 47      -0.074749152462
 48      -0.029771499837
 49      -0.044157124908
 50      -0.021752278718
 Sym=     1a
 Ene= -7.13109118746996E-01
 Spin= Alpha
 Occup= 2.000000
  1      -0.063447413840
  2       0.126149471660
  3      -0.182881126384
  4      -0.135646194473
  5       0.025809037194
  6       0.143912281956
  7      -0.065966400865
  8      -0.084862005556
  9       0.011608956312
 10       0.007524237662
 11       0.000728981627
 12       0.011676452929
 13      -0.009603920258
 14       0.002912963078
 15       0.044992174596
 16      -0.100825011782
 17       0.114521182840
 18      -0.202010134437
 19       0.018357080360
 20      -0.037248189697
 21       0.057297211283
 22      -0.034158896581
 23       0.007947598397
 24       0.005097332608
 25      -0.002096926675
 26       0.003467227041
 27       0.013092606819
 28       0.005005810854
 29      -0.067080497974
 30       0.166738410464
 31       0.323172226992
 32       0.206493996066
 33       0.050410205427
 34       0.220143750687
 35       0.209857836418
 36       0.121465519968
 37       0.034424569631
 38       0.013338639831
 39      -0.002457822797
 40      -0.002205698997
 41      -0.006677139573
 42      -0.021358611132
 43      -0.084978726397
 44       0.007812759155
 45       0.067910037030
 46       0.042649203150
 47       0.087230824514
 48       0.054331034976
 49       0.156087787303
 50       0.080100929069
 Sym=     1a
 Ene= -6.40981683888478E-01
 Spin= Alpha
 Occup= 2.000000
  1       0.032257772016
  2      -0.054168033127
  3       0.168032563494
  4      -0.000569384062
  5      -0.113269730989
  6      -0.102626432174
  7       0.051105543458
  8      -0.008907729309
  9      -0.060522486503
 10      -0.012674398495
 11       0.001240729251
 12      -0.008702151555
 13       0.005276672039
 14      -0.007331033175
 15      -0.019063640779
 16       0.034938531932
 17      -0.131317716120
 18      -0.302686930935
 19      -0.099802693885
 20       0.102989833402
 21      -0.021870560624
 22      -0.099288028158
 23      -0.044700668978
 24       0.002124196558
 25       0.001214594063
 26      -0.009839306471
 27       0.012803990073
 28      -0.031821084560
 29      -0.023405780478
 30       0.046733710829
 31      -0.064933386680
 32       0.391614229535
 33      -0.162649432353
 34       0.138290963943
 35      -0.067999468253
 36       0.233412304915
 37      -0.113109909126
 38       0.002364694176
 39       0.009344585293
 40       0.009986625075
 41       0.024981667883
 42      -0.012196872048
 43       0.090743613503
 44       0.084559274465
 45       0.117371451569
 46       0.074448493582
 47      -0.126105418841
 48      -0.080866783766
 49      -0.055168331140
 50      -0.043599566186
 Sym=     1a
 Ene= -6.04682017759294E-01
 Spin= Alpha
 Occup= 2.000000
  1      -0.023091198382
  2       0.047901680544
  3      -0.104212598466
  4      -0.121453730311
  5      -0.205734488704
  6       0.058803154573
  7      -0.063312462141
  8      -0.076020323753
  9      -0.114023041797
 10      -0.010566811834
 11      -0.001856267553
 12       0.003465320563
 13      -0.008398353221
 14       0.013589175603
 15       0.012480450960
 16      -0.023081434181
 17       0.058201194708
 18       0.124868085156
 19      -0.220063809784
 20      -0.046865043450
 21       0.001969733662
 22       0.041463869457
 23      -0.117541556655
 24      -0.001268445387
 25       0.000942938848
 26      -0.023504883807
 27      -0.006490432115
 28       0.014737537691
 29       0.008411141417
 30      -0.017029542817
 31      -0.011333354280
 32      -0.160606180337
 33      -0.364175340978
 34      -0.047940086793
 35       0.002380330097
 36      -0.104361683570
 37      -0.260115860808
 38      -0.002188712843
 39       0.016133214671
 40       0.024289454969
 41      -0.008512088743
 42       0.005122890932
 43      -0.009222371478
 44      -0.007748226811
 45      -0.050205687662
 46      -0.034008065836
 47      -0.088246358789
 48      -0.068160142503
 49       0.165514531700
 50       0.099713442192
 Sym=     1a
 Ene= -5.36173760586237E-01
 Spin= Alpha
 Occup= 2.000000
  1       0.003503500215
  2      -0.015643297632
  3      -0.177582211721
  4       0.195220913285
  5       0.222602754751
  6       0.036851938602
  7      -0.057946315005
  8       0.135784056355
  9       0.128322659517
 10       0.023380667733
 11      -0.014520877247
 12       0.002061117642
 13      -0.008759329476
 14      -0.004268316585
 15       0.016516984888
 16      -0.040745325828
 17       0.234643057941
 18      -0.060658459119
 19      -0.087762304740
 20      -0.064450303265
 21       0.112166733885
 22      -0.039165099851
 23      -0.062356288620
 24      -0.000898931388
 25      -0.013833144206
 26      -0.016661182212
 27      -0.009396999994
 28      -0.022523363235
 29       0.014640558635
 30      -0.032943064735
 31      -0.099636151347
 32       0.023709651823
 33      -0.284600881606
 34      -0.058885654227
 35      -0.081196743360
 36       0.020499137059
 37      -0.211959986517
 38      -0.002659496803
 39       0.011156986386
 40       0.016057025189
 41       0.004158215867
 42      -0.004501009284
 43       0.080259778580
 44       0.075719252934
 45       0.126955719596
 46       0.104163052395
 47       0.213465475926
 48       0.171423295296
 49      -0.102377255719
 50      -0.066490608070
 Sym=     1a
 Ene= -4.90477170129546E-01
 Spin= Alpha
 Occup= 2.000000
  1       0.022176621052
  2      -0.038183038958
  3      -0.234733544569
  4      -0.097583191920
  5      -0.123680023365
  6      -0.071826084311
  7      -0.101035323306
  8      -0.032823156258
  9      -0.071202255049
 10      -0.005344702622
 11       0.005753783341
 12       0.005315368130
 13      -0.018703870809
 14       0.013075636866
 15       0.014773513802
 16      -0.031902956018
 17       0.237483580399
 18      -0.035533743561
 19       0.079386131242
 20      -0.093634783103
 21       0.096321323090
 22      -0.072565596068
 23       0.057670741480
 24      -0.003373807691
 25       0.008849913248
 26       0.014782686642
 27      -0.026365177676
 28      -0.023828895381
 29       0.015644213529
 30      -0.049529887715
 31      -0.399606579622
 32       0.037008813775
 33       0.206188444161
 34      -0.014213255079
 35      -0.335265011023
 36       0.020865822503
 37       0.165729244930
 38      -0.011390041037
 39      -0.006222644504
 40      -0.014564171536
 41       0.019333787477
 42       0.004745809811
 43       0.113279446956
 44       0.120371183615
 45       0.131626113482
 46       0.116080370920
 47      -0.060795314482
 48      -0.033421377090
 49       0.156475300723
 50       0.161709902896
 Sym=     1a
 Ene= -3.37817418600270E-01
 Spin= Alpha
 Occup= 2.000000
  1      -0.044402679987
  2       0.066871024701
  3      -0.034015590373
  4       0.335389048480
  5      -0.256412860337
  6       0.256797388623
  7      -0.001911250274
  8       0.341474964340
  9      -0.235902105013
 10      -0.007035662182
 11      -0.013020827457
 12       0.000490767680
 13      -0.009040571195
 14       0.009849166745
 15       0.014631181842
 16      -0.037213930533
 17       0.070225196274
 18       0.001013707696
 19      -0.107299603775
 20      -0.071207517643
 21       0.085783561063
 22       0.038022964532
 23      -0.093458868303
 24       0.000188428544
 25       0.020841939735
 26       0.009031281049
 27       0.015281308233
 28      -0.016494121559
 29       0.021729897862
 30      -0.039736374602
 31       0.236189673179
 32      -0.017083359300
 33       0.198003658127
 34      -0.176996770360
 35       0.229875105826
 36      -0.021087042519
 37       0.191210234638
 38       0.003050269596
 39      -0.005595189002
 40      -0.005401981240
 41      -0.009925240371
 42      -0.007163369385
 43       0.102586988796
 44       0.182002363410
 45       0.032792495701
 46       0.053181788326
 47      -0.045473848255
 48      -0.050408368799
 49      -0.047726403825
 50      -0.021798688145
 Sym=     1a
 Ene= 1.17950952758609E-01
 Spin= Alpha
 Occup= 0.000000
  1       0.016244930195
  2      -0.005628061770
  3      -0.002292131804
  4      -0.058957273788
  5       0.052762234991
  6      -0.255724056983
  7       0.015079722443
  8      -0.108284079311
  9       0.041889812749
 10       0.010277703100
 11      -0.028672911118
 12       0.005116302171
 13       0.007002854176
 14      -0.006232944645
 15      -0.005634587056
 16       0.005174665626
 17      -0.023502569881
 18       0.002582034286
 19      -0.441996464231
 20       0.075306394722
 21      -0.097713807684
 22       0.027080830177
 23      -0.677792891234
 24       0.001916179381
 25       0.000213231785
 26       0.019213670389
 27      -0.006050349701
 28       0.002221546482
 29      -0.017513525528
 30       0.031798099252
 31      -0.111223290944
 32       0.031257538877
 33       0.276060932440
 34       0.151620607146
 35      -0.152610396468
 36       0.047074482183
 37       0.382978601420
 38      -0.000215446434
 39      -0.005040630606
 40       0.007085866548
 41       0.002147177089
 42       0.004141331528
 43      -0.086748967759
 44      -0.344192569891
 45       0.004650897935
 46       0.021905835335
 47       0.112447058816
 48       0.416647907404
 49      -0.045296531011
 50      -0.102499630858
 Sym=     1a
 Ene= 2.45021932162647E-01
 Spin= Alpha
 Occup= 0.000000
  1       0.077670767840
  2      -0.099981508568
  3       0.090620593801
  4      -0.155129309737
  5       0.058979764334
  6      -0.807767391244
  7       0.361109078387
  8      -0.333390946466
  9       0.018583943693
 10      -0.004641203581
 11       0.000639793831
 12      -0.008752026447
 13      -0.016268710672
 14      -0.005187294965
 15      -0.017877709114
 16       0.004893873112
 17       0.104577605016
 18      -0.072927915578
 19      -0.074403426713
 20       0.320345665693
 21       0.519910805888
 22      -0.463015410913
 23      -0.113031137336
 24       0.007137651666
 25      -0.004339824282
 26       0.001151883633
 27       0.004957241148
 28       0.015167105665
 29       0.042365301575
 30      -0.087015934833
 31       0.150231819280
 32      -0.100402806954
 33       0.059625184743
 34      -0.388410253588
 35       0.241653734847
 36      -0.132860192713
 37       0.113880828001
 38       0.002022284364
 39      -0.000385030438
 40       0.001095230421
 41      -0.004317178177
 42      -0.014597890208
 43       0.164351719095
 44       1.359614494571
 45      -0.073668310938
 46      -1.025082462043
 47      -0.019343444017
 48       0.577782602792
 49       0.020763554063
 50       0.385938252479
 Sym=     1a
 Ene= 2.65884572980957E-01
 Spin= Alpha
 Occup= 0.000000
  1       0.005633800303
  2      -0.030995889493
  3       0.143503170639
  4      -0.014333513232
  5       0.099111618599
  6      -0.149657055929
  7       0.503418823068
  8      -0.053644158688
  9       0.362443563371
 10      -0.005295317866
 11       0.003036886755
 12      -0.001211407675
 13      -0.009649514054
 14       0.010292272088
 15       0.094630051062
 16      -0.135438234780
 17      -0.130295427839
 18       0.208891964836
 19      -0.041610153942
 20      -1.691932574368
 21      -0.404812058623
 22       0.758443901470
 23      -0.127645444910
 24      -0.006132766813
 25      -0.006188996823
 26       0.000965539476
 27       0.004003811860
 28       0.000813758519
 29       0.011049415209
 30      -0.024448758199
 31       0.099153008909
 32      -0.083450617004
 33       0.028914545425
 34      -0.145628406464
 35       0.228455346205
 36      -0.139210056237
 37       0.054207877046
 38      -0.005276621120
 39      -0.001549860326
 40       0.001420272490
 41       0.005698853279
 42      -0.004187937922
 43       0.096294518337
 44       0.246140073784
 45       0.006065204152
 46       1.915007495954
 47      -0.012171245876
 48      -0.178994722434
 49       0.030419946945
 50       0.650189451383
 Sym=     1a
 Ene= 2.99235213932885E-01
 Spin= Alpha
 Occup= 0.000000
  1       0.105001806348
  2      -0.048032923153
  3       0.083881712573
  4       0.140325435423
  5      -0.176100219907
  6      -2.285753623309
  7       0.202975485418
  8       0.393519145723
  9      -0.776740077095
 10       0.005183698118
 11       0.005289381170
 12       0.003002550046
 13       0.007468662758
 14      -0.006962760098
 15      -0.021811042328
 16      -0.039689249734
 17      -0.083812566897
 18       0.031100906725
 19       0.072062116595
 20       0.538591833000
 21      -0.515321805825
 22       0.124336839317
 23       0.298053315523
 24       0.009313888645
 25       0.007892114385
 26       0.000052609206
 27      -0.004663519046
 28      -0.006784887218
 29      -0.008332908413
 30       0.015195774195
 31      -0.021153109408
 32       0.053041482639
 33      -0.087826355466
 34       0.061780852198
 35      -0.000224771709
 36       0.092335380356
 37      -0.127920477526
 38       0.007438629480
 39      -0.001574304064
 40      -0.000137349053
 41      -0.001740136048
 42       0.006456684808
 43      -0.099866301469
 44      -0.529544550284
 45      -0.020371064202
 46       0.265930639189
 47       0.019659610410
 48       1.704563323777
 49      -0.012185896325
 50       1.091223039201
 Sym=     1a
 Ene= 3.38225373943722E-01
 Spin= Alpha
 Occup= 0.000000
  1       0.021576845700
  2      -0.043029658084
  3       0.023347340880
  4       0.218640364663
  5       0.215086204815
  6      -0.171268646155
  7       0.371801496150
  8       1.360149205578
  9       1.174457722566
 10      -0.001664639890
 11       0.002498488647
 12       0.005151161485
 13       0.008875895296
 14       0.009468753196
 15      -0.039602780434
 16       0.095595978276
 17       0.015656586609
 18      -0.064595673515
 19      -0.022958107905
 20       0.327885364724
 21       0.302304671081
 22      -0.606118722056
 23      -0.408398091996
 24       0.000685282940
 25      -0.015307562021
 26       0.005791054208
 27       0.005946217514
 28      -0.022922679954
 29      -0.004399469499
 30      -0.028653883208
 31       0.030896786024
 32       0.064732556469
 33       0.016643972312
 34       0.327497081641
 35      -0.099340613541
 36       0.041161900797
 37       0.072803628135
 38      -0.006793579378
 39      -0.007118835677
 40      -0.000263797181
 41       0.003161962628
 42       0.007055504251
 43       0.022556199588
 44      -0.544387742038
 45       0.035318927714
 46      -0.850068119079
 47      -0.004739344905
 48      -1.331287463275
 49       0.015223634511
 50       2.073723921977
 Sym=     1a
 Ene= 4.02621163433260E-01
 Spin= Alpha
 Occup= 0.000000
  1       0.031760423500
  2      -0.027997360245
  3      -0.066254856426
  4       0.029734595550
  5       0.005330621219
  6      -1.001305466506
  7      -0.780723989039
  8       0.312126477724
  9       0.074247834471
 10      -0.007851426834
 11      -0.005121281170
 12      -0.008836380532
 13      -0.012088218142
 14      -0.018717301940
 15       0.033187391162
 16       0.008306662345
 17      -0.114076497506
 18      -0.118599953144
 19       0.017972568952
 20      -0.803719572389
 21      -1.472625424599
 22      -1.702302492387
 23      -0.022422099882
 24       0.000420641636
 25       0.002299974062
 26      -0.001095739273
 27      -0.009243636117
 28       0.005367357857
 29      -0.074546141984
 30       0.075346857037
 31       0.066570926073
 32      -0.209756647544
 33       0.014935013012
 34       1.648756214839
 35       0.025703210117
 36      -0.915833742410
 37       0.027724036581
 38      -0.020974613494
 39       0.000646831373
 40      -0.001678693200
 41      -0.031736629593
 42       0.019883982623
 43       0.013373236373
 44       0.549568936345
 45      -0.008182811351
 46       0.203813655783
 47      -0.020676999235
 48      -0.136298266786
 49      -0.090853556157
 50      -0.008460912451
 Sym=     1a
 Ene= 4.90888839168157E-01
 Spin= Alpha
 Occup= 0.000000
  1       0.083307077253
  2       0.037011553075
  3      -0.052244094674
  4      -0.049830655625
  5       0.080917502544
  6      -2.515935857023
  7      -2.652814388169
  8      -0.736064245445
  9       0.146014204811
 10      -0.007753392092
 11       0.003376107920
 12      -0.019472457116
 13       0.021717005389
 14      -0.005486225674
 15      -0.095129333397
 16       0.055684911911
 17      -0.303915185459
 18       0.111402157952
 19      -0.005995240643
 20       3.223663366632
 21      -2.000313953544
 22       1.471901272669
 23      -0.057335151620
 24      -0.001973513482
 25      -0.008693843056
 26      -0.000693826637
 27      -0.008745739473
 28       0.015130136597
 29       0.052939029395
 30      -0.031519244595
 31       0.050925896869
 32       0.028141202208
 33       0.034031102467
 34      -1.380321107879
 35       0.563998197402
 36       0.416664814390
 37       0.038140069585
 38       0.027953467109
 39      -0.001318503926
 40       0.000705763749
 41      -0.001855717724
 42      -0.007298696641
 43      -0.091205775674
 44       0.744553311042
 45      -0.086405074946
 46       1.120267813256
 47      -0.099716658724
 48      -0.329478081509
 49      -0.030895419811
 50      -0.643581747860
 Sym=     1a
 Ene= 7.21878922160781E-01
 Spin= Alpha
 Occup= 0.000000
  1       0.001237653840
  2       0.231220563665
  3       0.405258613269
  4      -0.158459557491
  5      -0.347428816925
  6       0.318814457021
  7      -0.132790853725
  8       0.397591565598
  9       0.532812314885
 10      -0.072283021186
 11      -0.007996065349
 12      -0.000754038399
 13       0.007374854891
 14       0.046771788274
 15       0.038572651539
 16       0.486900024361
 17      -0.212172134886
 18      -0.187130642292
 19      -0.469380235617
 20      -1.252416009304
 21       0.546457617949
 22      -0.310310898368
 23       0.337079270172
 24      -0.079161921692
 25       0.006639751459
 26      -0.012424506457
 27       0.053584234399
 28      -0.047836642984
 29      -0.025716321485
 30       0.036385681794
 31       0.088832042122
 32      -0.014539937809
 33      -0.036369330160
 34       0.572853137166
 35      -0.251592983789
 36      -0.315604764650
 37      -0.013858249544
 38      -0.043866149615
 39       0.006232968542
 40       0.033744965756
 41       0.032070635852
 42       0.008955665511
 43       0.230703647807
 44      -0.243369893225
 45       0.338112628873
 46      -0.303517582509
 47      -0.245661227385
 48       0.091028099542
 49       0.207444292354
 50       0.102477614710
 Sym=     1a
 Ene= 7.55807664640701E-01
 Spin= Alpha
 Occup= 0.000000
  1       0.000655003983
  2       0.142292881438
  3       0.390888334225
  4      -0.268373232503
  5       0.083866482251
  6       0.301209835615
  7       0.009275147503
  8       0.280177577016
  9       0.002221079582
 10      -0.011705049677
 11       0.036894750451
 12       0.011378541804
 13       0.019924723997
 14      -0.008454108493
 15       0.038386404522
 16       0.318502901924
 17      -0.138025275882
 18      -0.109300540143
 19       0.867667681314
 20      -0.936340309860
 21       0.644851381148
 22      -0.218325337041
 23      -0.999402937901
 24      -0.059057041008
 25      -0.020544636909
 26       0.028543977926
 27       0.040292868513
 28       0.000523210847
 29      -0.020515278449
 30       0.075617400829
 31      -0.036531565006
 32      -0.018222369808
 33       0.031863498163
 34       0.256965981306
 35      -0.167673093592
 36      -0.153402063737
 37       0.100614871389
 38      -0.015300682509
 39      -0.027828636145
 40      -0.062468335957
 41       0.010577130651
 42      -0.001008544738
 43      -0.013992143565
 44      -0.018697046072
 45       0.204381672072
 46      -0.275313452602
 47      -0.001330675595
 48       0.294350119014
 49       0.011439932420
 50       0.050894959563
 Sym=     1a
 Ene= 8.15478602741915E-01
 Spin= Alpha
 Occup= 0.000000
  1       0.019042319961
  2      -0.223378125758
  3      -0.484781880571
  4       0.061171535681
  5      -0.356090155873
  6      -0.277133300104
  7       0.107581378984
  8       0.123555058593
  9       0.709115807292
 10      -0.050916747019
 11       0.021030174937
 12       0.002573068522
 13      -0.029881371222
 14       0.061611912977
 15      -0.037446400232
 16      -0.350668406836
 17      -0.059594758517
 18      -0.383703503577
 19       0.329798694213
 20       0.711949552855
 21      -0.786329695132
 22       0.747630148593
 23      -0.611567723346
 24       0.036025244267
 25      -0.004753495693
 26       0.008201226049
 27      -0.070944465112
 28      -0.030183400052
 29       0.001682807508
 30      -0.068797216277
 31       0.198789931033
 32      -0.016807633835
 33       0.008989958511
 34      -0.013405190321
 35       0.031543088883
 36      -0.133702042633
 37       0.053933108480
 38       0.002037858129
 39      -0.010858032339
 40      -0.021678073879
 41       0.091420830094
 42      -0.014931795700
 43       0.563052868045
 44      -1.009232137850
 45      -0.042311210035
 46       0.441176457083
 47      -0.167004418999
 48      -0.021119594790
 49       0.251878794499
 50      -0.060040255226
 Sym=     1a
 Ene= 8.33229882512825E-01
 Spin= Alpha
 Occup= 0.000000
  1      -0.016521509173
  2       0.236875472523
  3      -0.018511692778
  4       0.327426690143
  5      -0.435624886483
  6      -0.685443979219
  7      -0.188550449553
  8      -0.410512030058
  9       0.727859635966
 10      -0.002779294300
 11       0.014847508527
 12       0.001877706777
 13      -0.033095549389
 14       0.063031894522
 15      -0.026596067440
 16       0.520406483759
 17       0.461464933023
 18       0.541706562327
 19       0.226307688416
 20      -0.350250587030
 21      -0.905793071370
 22      -0.261492549342
 23      -0.441671471209
 24       0.019169287630
 25      -0.000372415689
 26       0.009850207179
 27       0.069604201444
 28      -0.090258392495
 29       0.028409500848
 30      -0.121026383148
 31       0.149018484032
 32       0.147585812778
 33       0.001693940174
 34       0.146811104016
 35       0.140577246351
 36       0.166087180000
 37       0.055694218955
 38      -0.050048018856
 39      -0.029108555519
 40      -0.014928544452
 41      -0.115209126408
 42       0.059566461949
 43      -0.204941964295
 44       0.560658683425
 45       0.178931992990
 46       0.213151271219
 47      -0.141779502052
 48      -0.065071671751
 49       0.129667960997
 50      -0.162752665405
 Sym=     1a
 Ene= 8.76634257378433E-01
 Spin= Alpha
 Occup= 0.000000
  1       0.045390769074
  2       0.150005847793
  3      -0.260381734803
  4      -0.526845547265
  5       0.445896840038
  6      -1.663049627433
  7       0.110821215467
  8       0.683791603845
  9      -0.768570622175
 10       0.031242143979
 11       0.019133780053
 12       0.066765385338
 13      -0.006323363960
 14       0.053873419122
 15      -0.036376958038
 16       0.437422701096
 17       0.232882707296
 18       0.029192831140
 19      -0.120420717678
 20      -0.196653286523
 21      -1.556772995766
 22       0.589312910430
 23       0.336712275100
 24       0.022136105584
 25      -0.021628017817
 26       0.007007407406
 27      -0.011934475610
 28      -0.045218680673
 29       0.012580822223
 30      -0.032002754271
 31       0.229399066258
 32       0.033547615934
 33      -0.030928241225
 34      -0.021003514353
 35       0.228118155596
 36       0.074166890264
 37      -0.029756229854
 38      -0.011487225076
 39       0.011890658908
 40       0.009892431311
 41      -0.022825126989
 42       0.037832434367
 43       0.031536620295
 44      -0.331804980605
 45       0.308550683110
 46       0.850771283098
 47       0.274469880782
 48       0.336719068808
 49       0.417974249944
 50       0.102719588091
 Sym=     1a
 Ene= 9.43886997025076E-01
 Spin= Alpha
 Occup= 0.000000
  1      -0.029836342181
  2      -0.322403243001
  3       0.506174189588
  4      -0.042061635786
  5       0.260758759456
  6      -0.372771594175
  7      -1.555929270549
  8      -0.609122529607
  9      -0.488849491853
 10       0.045721204417
 11      -0.012330596363
 12      -0.088086492913
 13      -0.094410686595
 14       0.029453140410
 15      -0.007541674618
 16      -0.406147227892
 17       0.685097364016
 18      -0.004563417815
 19      -0.039253956130
 20       1.477702075810
 21      -1.815324085200
 22       0.953266241287
 23       0.196020675012
 24      -0.015307635164
 25       0.008517424741
 26      -0.020036547877
 27       0.111151937129
 28      -0.036770551801
 29       0.008710028612
 30      -0.066126774109
 31       0.170803755883
 32       0.154873046289
 33       0.063169918888
 34      -0.113845920352
 35       0.028023831707
 36      -0.031549068651
 37      -0.091365254803
 38      -0.039816437632
 39       0.034840816962
 40       0.000064261701
 41      -0.006085557202
 42      -0.030537233819
 43       0.505184538940
 44      -0.821014608568
 45       0.030229389782
 46       0.820698666108
 47      -0.163987759335
 48       0.025041901270
 49      -0.347713990227
 50      -0.698199005287
 Sym=     1a
 Ene= 9.89948675476205E-01
 Spin= Alpha
 Occup= 0.000000
  1       0.001501293272
  2       0.366243758144
  3       0.056658171638
  4       0.531977733893
  5       0.031352473656
  6      -1.776523782425
  7      -0.953772507790
  8      -1.690265677319
  9      -0.503722957217
 10       0.074157128639
 11      -0.036554263796
 12      -0.006022557401
 13       0.006841979670
 14      -0.026769056105
 15       0.030478375670
 16       0.249636220743
 17       0.246213913871
 18      -0.703572676863
 19      -0.010131375290
 20       0.263738469228
 21      -1.876473820584
 22       2.390705258215
 23       0.267487281764
 24      -0.101220370484
 25       0.038558306696
 26       0.000698926986
 27      -0.069601904517
 28       0.026727894903
 29      -0.008970917248
 30       0.160767064688
 31      -0.068074383786
 32      -0.351174315186
 33       0.039413246375
 34      -1.046826989261
 35       0.386968261414
 36       0.170304388152
 37      -0.076822550765
 38       0.091455341397
 39       0.015077152886
 40      -0.010799329555
 41       0.010687212256
 42      -0.069002959321
 43      -0.231589639155
 44       0.694457824895
 45       0.325550665917
 46       1.577945539605
 47       0.252051887431
 48       0.179562308116
 49      -0.089911747333
 50      -0.595097292441
 Sym=     1a
 Ene= 1.05847159286685E+00
 Spin= Alpha
 Occup= 0.000000
  1      -0.043024358432
  2       0.333237635086
  3       0.114297495323
  4      -0.510691003991
  5      -0.303974976390
  6      -1.521109097504
  7      -0.368246738104
  8       1.305272278732
  9       1.097805839362
 10       0.037057681733
 11       0.080607234356
 12       0.030844486653
 13      -0.076693064382
 14      -0.101487699355
 15       0.002275348926
 16      -0.535954286996
 17       0.520978950075
 18      -0.316609937280
 19      -0.010468074314
 20       1.292440172355
 21      -1.411449070719
 22       0.608012600785
 23      -0.369821318042
 24       0.022022873605
 25      -0.085207115887
 26       0.019925789776
 27       0.006118530408
 28       0.142671779530
 29      -0.009033257348
 30       0.106715013562
 31      -0.178364184528
 32      -0.093383492130
 33      -0.185264018739
 34      -0.446594523185
 35       0.289762605801
 36       0.154157804759
 37       0.231189586473
 38       0.104597934259
 39      -0.073794992256
 40       0.027046462693
 41      -0.047072432643
 42      -0.059109794405
 43      -0.471091269747
 44      -0.101869366836
 45      -0.285789863786
 46       0.862251949237
 47      -0.289804856121
 48      -0.588985773803
 49       0.036301571331
 50       1.003539523647
 Sym=     1a
 Ene= 1.10258384143616E+00
 Spin= Alpha
 Occup= 0.000000
  1      -0.020043216508
  2       0.056379297849
  3      -0.013371083704
  4       0.092526228113
  5       0.259663859784
  6      -0.640378100139
  7      -0.384325554339
  8      -0.127297264539
  9      -0.204425153596
 10      -0.001228460044
 11       0.077003191990
 12      -0.020685978231
 13      -0.048561672307
 14       0.069750257121
 15       0.043831287775
 16      -1.183574792703
 17      -0.183845068347
 18       0.317913095300
 19      -0.005209199753
 20       2.559113343778
 21      -0.078006639686
 22      -0.187144229606
 23      -0.065573015886
 24      -0.076029404521
 25      -0.078758822300
 26       0.010747386338
 27      -0.088759862150
 28      -0.111305024024
 29      -0.004040931454
 30       0.054234873674
 31      -0.020359299043
 32      -0.214842885936
 33      -0.044173731152
 34      -0.453215255115
 35       0.129124266722
 36       0.292672169555
 37       0.069140779911
 38       0.078409569277
 39      -0.023281836416
 40       0.014608996316
 41       0.065626356086
 42       0.054435228328
 43      -0.202907247734
 44       0.085812900886
 45       0.780472484107
 46      -1.339533046804
 47      -0.403930328611
 48       0.382837937959
 49       0.120573314001
 50      -0.324737322386
 Sym=     1a
 Ene= 1.16022182990306E+00
 Spin= Alpha
 Occup= 0.000000
  1       0.004502722002
  2      -0.195224521302
  3       0.039776316920
  4      -0.433680635088
  5      -0.550842867794
  6      -0.050240532822
  7      -0.287748160166
  8       0.738476521470
  9       0.809633104999
 10       0.084870286112
 11      -0.112117334657
 12       0.001938362488
 13       0.005531447748
 14      -0.048241288536
 15       0.015544350082
 16      -0.187426625800
 17       0.017674949891
 18       0.297166267782
 19       0.036777279160
 20       1.531453163113
 21      -0.288210641564
 22       0.159565869968
 23      -0.084267728004
 24      -0.087337804503
 25       0.098391001831
 26      -0.005889766204
 27      -0.101634125908
 28       0.030772215342
 29       0.046058219558
 30      -0.239133402071
 31      -0.134189427114
 32      -0.393626361181
 33      -0.017741347773
 34      -0.301350903800
 35       0.444509047932
 36       0.903025608856
 37      -0.012695831040
 38      -0.013780525126
 39       0.017374822631
 40      -0.019204285948
 41       0.074198935568
 42       0.010822761125
 43       0.316562487883
 44      -0.592676984125
 45       0.275722113561
 46      -0.347996198864
 47       0.575673624106
 48      -1.150973811846
 49      -0.376928114299
 50       0.808578152099
 Sym=     1a
 Ene= 1.20816406682961E+00
 Spin= Alpha
 Occup= 0.000000
  1      -0.048789290306
  2       0.373312241962
  3      -0.415963051586
  4      -0.050800115494
  5       0.303342842657
  6       0.108973641570
  7       0.985987157160
  8      -0.024938417993
  9      -0.464944926979
 10      -0.093078985044
 11       0.028266567207
 12      -0.105944226494
 13       0.038059550297
 14      -0.042243477413
 15       0.018324121336
 16       0.760867511540
 17      -0.012838897125
 18       0.014781572963
 19       0.034713955237
 20      -1.563160344267
 21       0.544270492930
 22       0.210543563376
 23      -0.181313742101
 24      -0.066390207106
 25      -0.051382831942
 26      -0.021306698937
 27      -0.042192079189
 28       0.034005869081
 29       0.028081744798
 30      -0.196029638814
 31      -0.087852455937
 32      -0.195212513467
 33      -0.448375673382
 34       0.194511634634
 35       0.143022264784
 36       0.427222282338
 37       0.566016657569
 38      -0.071220564878
 39       0.008582136850
 40       0.024727829411
 41       0.030038373712
 42      -0.001383436590
 43       0.289622182846
 44      -0.411712036098
 45      -0.017018607040
 46       0.238069677543
 47      -0.592278023546
 48       1.056730465181
 49      -0.520045549185
 50       0.531220128138
 Sym=     1a
 Ene= 1.24595342755513E+00
 Spin= Alpha
 Occup= 0.000000
  1      -0.025908969212
  2       0.580735788560
  3      -0.453572927984
  4      -0.383188590173
  5      -0.178594461917
  6      -1.087737649855
  7       0.539196939184
  8       0.281117587675
  9       0.196766985105
 10       0.047051169714
 11      -0.073037093844
 12      -0.117135918941
 13       0.079745375524
 14      -0.049168188151
 15      -0.010552388844
 16      -0.108048923890
 17      -0.142130459356
 18      -0.024665133258
 19      -0.025932846171
 20      -0.344302270812
 21       0.050508700262
 22       0.199594210928
 23       0.191242231030
 24       0.064091585464
 25       0.055087515472
 26       0.008981377431
 27       0.058691271042
 28      -0.038851503833
 29      -0.023240421714
 30       0.204819574078
 31       0.293702076832
 32       0.276043876986
 33       0.318771130198
 34      -0.221600240806
 35      -0.344816589783
 36      -0.491503317955
 37      -0.441951973304
 38       0.049356440902
 39      -0.012644115333
 40      -0.025269643762
 41      -0.028247436704
 42       0.020657309976
 43      -0.238613051662
 44       0.283602624585
 45       0.323015687946
 46      -0.063809210541
 47      -0.068238610372
 48       0.112279924429
 49      -0.746978078592
 50       1.247189560789
 Sym=     1a
 Ene= 1.25327267981178E+00
 Spin= Alpha
 Occup= 0.000000
  1       0.024018542446
  2      -0.007090567568
  3       0.089847415401
  4       0.056407710497
  5      -0.151253680573
  6      -0.106640547033
  7      -0.538917120425
  8      -0.452322150104
  9       0.148925102816
 10       0.061190680401
 11      -0.082811655369
 12       0.050152634481
 13       0.031366019532
 14       0.022684115948
 15      -0.015402847438
 16      -0.380947715931
 17      -0.134488039912
 18       0.017199469935
 19       0.091632328547
 20       0.649821472721
 21       0.055773890085
 22      -0.118677600374
 23      -0.335074646240
 24       0.055444084253
 25       0.054877170793
 26      -0.025650390329
 27       0.079433130648
 28      -0.026723179904
 29      -0.019002536087
 30       0.122006011839
 31       0.379160194973
 32       0.160208188695
 33      -0.750076050036
 34      -0.113829278174
 35      -0.537040664921
 36      -0.383272645577
 37       0.943342447130
 38       0.034533380562
 39       0.018519070583
 40       0.016029907338
 41      -0.031990979907
 42      -0.021378432168
 43      -0.132876516556
 44       0.468609273228
 45       0.115842229294
 46      -0.305328184509
 47       0.392848824720
 48      -0.512134108790
 49      -0.079121142251
 50      -0.258019110592
 Sym=     1a
 Ene= 1.28832832896319E+00
 Spin= Alpha
 Occup= 0.000000
  1      -0.031900091659
  2      -1.643061165733
  3      -0.101518238307
  4      -0.101727345041
  5      -0.154657757153
  6       3.784367717143
  7       0.849537629639
  8      -0.173783890028
  9       0.521405260432
 10       0.030834371059
 11       0.031459382966
 12      -0.087039038726
 13      -0.005794198904
 14      -0.025080770031
 15       0.004994713081
 16       0.573569097908
 17       0.014893357263
 18      -0.168688962766
 19      -0.014583312626
 20      -2.831575637407
 21       0.287317846313
 22       0.677666214083
 23      -0.117524753316
 24       0.046225887444
 25      -0.052595434044
 26      -0.010481742040
 27      -0.098765442798
 28      -0.110670256768
 29      -0.008337157581
 30       0.105299151683
 31      -0.299513610496
 32       0.302881645026
 33      -0.118890478860
 34      -0.054493180137
 35       0.531061291255
 36      -0.521540778975
 37       0.169974936314
 38       0.006479265798
 39      -0.038441069368
 40       0.027533991842
 41       0.028351188692
 42       0.113694113190
 43      -0.319848849487
 44       0.284057978136
 45       0.315058228967
 46       0.544774009394
 47      -0.074570034581
 48      -0.875320909599
 49      -0.174033861397
 50      -0.358782473058
 Sym=     1a
 Ene= 1.44899331088358E+00
 Spin= Alpha
 Occup= 0.000000
  1      -0.035440273809
  2      -1.150389093987
  3      -0.009754168762
  4      -0.031146535407
  5      -0.038059823300
  6       3.959909096653
  7       1.215354213295
  8       0.275850720596
  9       0.186341028280
 10       0.017013897173
 11       0.137536137583
 12      -0.037688831233
 13       0.019384480484
 14      -0.081561320555
 15       0.023408534850
 16       0.329973913543
 17      -0.122265731648
 18      -0.015388058108
 19      -0.025656734141
 20      -1.433202251365
 21       2.136070885852
 22       0.219296565914
 23      -0.027531563385
 24       0.011579001193
 25      -0.159793569215
 26       0.013292469527
 27      -0.053801104019
 28       0.183412048808
 29      -0.004678424683
 30       0.203372735360
 31       0.587181447745
 32      -0.443283485802
 33       0.117068988014
 34      -0.424758177129
 35      -1.158788615910
 36       1.052907584228
 37      -0.176425237348
 38       0.018715590967
 39      -0.093248647018
 40       0.048415958357
 41      -0.100749284411
 42      -0.047351471976
 43      -0.170386725986
 44      -0.954261384744
 45      -0.031235743810
 46      -0.354846898511
 47      -0.154206872702
 48      -0.383630629081
 49      -0.051149809994
 50      -0.158213482311
 Sym=     1a
 Ene= 1.73102199704616E+00
 Spin= Alpha
 Occup= 0.000000
  1      -0.018207149993
  2      -0.288802009352
  3      -0.004473683785
  4      -0.008674837951
  5       0.106385975412
  6       0.931859447281
  7       0.205070369553
  8       0.065214375466
  9       0.064498759968
 10      -0.125801492621
 11      -0.180258642227
 12       0.123317012076
 13      -0.075106934395
 14      -0.025189815562
 15       0.003329860105
 16       0.033542913134
 17       0.016412272044
 18      -0.021741458879
 19      -0.174226731595
 20      -0.378813582099
 21       0.285349613020
 22       0.061777710579
 23       0.102507672811
 24      -0.004735113577
 25       0.235822326501
 26       0.590283955729
 27      -0.016520434357
 28       0.022178361631
 29       0.001455264476
 30      -0.028491330946
 31       0.040326446116
 32      -0.027107021835
 33      -0.107642846186
 34       0.039524545020
 35      -0.110978369467
 36       0.090383352084
 37      -0.145723984648
 38       0.008623482833
 39      -0.192302359789
 40      -0.468670703841
 41      -0.014066910384
 42       0.014773694010
 43      -0.052733740007
 44      -0.188060743777
 45      -0.004338449606
 46      -0.003645830973
 47      -0.208518258623
 48      -0.079685352872
 49      -0.013341020861
 50      -0.099954531405
 Sym=     1a
 Ene= 1.76023597994117E+00
 Spin= Alpha
 Occup= 0.000000
  1       0.021008822851
  2       0.222814829017
  3      -0.035631594629
  4       0.095809768107
  5      -0.109259121784
  6      -0.818886469360
  7      -0.454173573131
  8      -0.502590314548
  9      -0.408192770548
 10       0.203608320059
 11       0.358504621202
 12       0.149175370341
 13       0.198141969108
 14      -0.038024566293
 15      -0.004711900188
 16      -0.002292858310
 17      -0.049102409585
 18       0.021047999645
 19      -0.131090321926
 20      -0.339786384395
 21      -0.647334097938
 22      -0.370791618782
 23       0.226730572706
 24       0.003932152887
 25      -0.508192017734
 26       0.305601698758
 27       0.158986460752
 28      -0.033960959085
 29       0.015518469442
 30      -0.577375580968
 31      -0.046868365644
 32       0.131012765751
 33      -0.015337711148
 34       1.191841100949
 35       0.026718921476
 36      -0.622520380672
 37      -0.037191550663
 38      -0.041282475879
 39      -0.245043981226
 40      -0.008138934212
 41       0.070079294713
 42      -0.144032442674
 43       0.113337312972
 44       0.307079040463
 45       0.121299990125
 46       0.079715312406
 47       0.278730368515
 48       0.135320413857
 49      -0.178396000454
 50      -0.267052219791
 Sym=     1a
 Ene= 1.90461553811340E+00
 Spin= Alpha
 Occup= 0.000000
  1      -0.010090452522
  2      -0.381562390271
  3      -0.053651921916
  4      -0.033703005978
  5       0.066706822940
  6       1.399042929219
  7       0.654706833000
  8       0.442823258347
  9      -0.005731838406
 10      -0.268130880186
 11      -0.131085599153
 12       0.096373827781
 13      -0.100163918055
 14      -0.161734257831
 15       0.007570063359
 16       0.120715588183
 17      -0.091244193357
 18      -0.095241788017
 19       0.061768170236
 20      -2.548301434300
 21       0.229943215985
 22      -1.085001955234
 23      -0.014300028432
 24       0.031231381395
 25       0.148646728049
 26      -0.155482744079
 27       0.179739335112
 28       0.006675840444
 29       0.027693535825
 30      -1.399050801518
 31       0.101325049312
 32       0.067615766909
 33       0.062363385865
 34       3.098735966808
 35      -0.647012872183
 36      -0.822991252247
 37      -0.089544925887
 38       0.346776028045
 39      -0.028784831921
 40       0.094982093590
 41      -0.095942985069
 42      -0.100157792395
 43      -0.267029109516
 44      -0.472439293650
 45       0.194576105318
 46      -0.116404039440
 47      -0.079875871295
 48       0.003834509791
 49       0.044371018591
 50       0.033575194483
 Sym=     1a
 Ene= 2.02101119597883E+00
 Spin= Alpha
 Occup= 0.000000
  1      -0.008389121900
  2       0.111342345408
  3       0.129061520603
  4      -0.109326379891
  5       0.047974233765
  6       0.618087765769
  7       0.310560558177
  8       0.284622759932
  9      -0.186181828432
 10       0.022148254048
 11      -0.195207142707
 12      -0.174113372372
 13      -0.005243806303
 14       0.446647466650
 15       0.001525152503
 16       0.062752294466
 17       0.038493863929
 18      -0.207473265436
 19       0.021480404690
 20      -0.810211390930
 21       0.832396571792
 22      -0.972581950757
 23       0.074770018965
 24      -0.086755670097
 25       0.011844278463
 26      -0.042846181346
 27      -0.095954533324
 28      -0.376873759485
 29      -0.006490823585
 30      -0.319209832201
 31       0.125068999271
 32      -0.139519355060
 33       0.007698735878
 34       1.083594333919
 35      -0.484003892525
 36      -0.143907916240
 37      -0.040481008484
 38      -0.056386534622
 39      -0.571941449885
 40       0.194727018555
 41       0.170466142485
 42       0.115289466078
 43      -0.251709333505
 44      -0.009209217416
 45      -0.578469995650
 46      -0.333256499216
 47       0.036629069338
 48       0.083422803233
 49      -0.117304297784
 50       0.085060119129
 Sym=     1a
 Ene= 2.09593113518099E+00
 Spin= Alpha
 Occup= 0.000000
  1      -0.008392160856
  2       0.247262634270
  3       0.238168586226
  4      -0.072953712501
  5      -0.070020804087
  6       0.882038646621
  7       0.500678127957
  8       0.344014243615
  9       0.040242048259
 10       0.151083721697
 11       0.271966701989
 12      -0.256014571076
 13      -0.095853981835
 14       0.214585089173
 15       0.016726878039
 16       0.355645012880
 17      -0.098540154088
 18      -0.112890799656
 19      -0.059763174381
 20      -1.610458875229
 21       1.212372420727
 22      -1.188563641050
 23      -0.078960718597
 24       0.176609067566
 25      -0.098453852585
 26       0.108918800499
 27      -0.173400390399
 28      -0.245171077566
 29      -0.001920184621
 30      -0.420898576499
 31       0.117427274284
 32      -0.088571057255
 33      -0.029252632295
 34       1.408860026900
 35      -0.524682145970
 36      -0.261249762404
 37       0.043179353246
 38       0.390983369465
 39       0.456968890169
 40      -0.272436997902
 41      -0.008360530425
 42       0.290233641253
 43      -0.027433579402
 44      -0.076186043705
 45      -0.371935212000
 46      -0.463310165000
 47       0.091710407278
 48       0.058127548136
 49      -0.090088576507
 50       0.220475193418
 Sym=     1a
 Ene= 2.13164853668137E+00
 Spin= Alpha
 Occup= 0.000000
  1      -0.007056944954
  2      -0.509896416039
  3      -0.223608116905
  4      -0.133686732645
  5      -0.012101295119
  6       0.740900908809
  7       0.579848357142
  8       0.924887249314
  9       0.540316613101
 10       0.246112130047
 11       0.040209887072
 12      -0.339243958764
 13       0.346971349915
 14       0.378340575733
 15       0.006035089111
 16      -0.176577140395
 17      -0.024092555880
 18      -0.074881503576
 19      -0.013216766023
 20      -0.703494010622
 21      -0.167341813645
 22      -0.667324936252
 23      -0.227660339249
 24      -0.050337327847
 25       0.230675907000
 26      -0.044983317289
 27       0.295951839790
 28      -0.030819765448
 29      -0.009467593962
 30      -0.273013918304
 31      -0.110727365633
 32      -0.141989091041
 33      -0.011423718116
 34       1.059142395667
 35      -0.039667750285
 36      -0.157758176893
 37       0.019358459744
 38      -0.188890598255
 39       0.200128018951
 40      -0.191840059007
 41      -0.124259816800
 42      -0.459581732850
 43      -0.296667424764
 44      -0.336104333717
 45       0.032174453473
 46      -0.111193633518
 47      -0.172580977954
 48      -0.332729480767
 49       0.229329125176
 50       0.400924350179
 Sym=     1a
 Ene= 2.22787608445236E+00
 Spin= Alpha
 Occup= 0.000000
  1       0.034521807795
  2       0.401598855533
  3       0.097660537287
  4       0.118064666087
  5       0.045663389772
  6      -1.220042825665
  7      -0.218529342523
  8       0.032617586301
  9      -0.190198139069
 10       0.139272432517
 11      -0.120650497857
 12      -0.596468445890
 13      -0.137209671606
 14      -0.046539160101
 15       0.013829403400
 16       0.191896530492
 17      -0.227720139299
 18       0.160010329568
 19      -0.008362590400
 20       0.187530696999
 21      -0.392477477510
 22      -0.085707513905
 23       0.043104550866
 24       0.411034118183
 25      -0.043392062012
 26       0.030254309885
 27      -0.001581073235
 28       0.303701320969
 29      -0.000836706233
 30       0.129347297638
 31      -0.185980701604
 32       0.039892915555
 33      -0.052838821976
 34      -0.095098429588
 35       0.398121474857
 36      -0.083194641633
 37       0.082172251684
 38       0.248428580280
 39      -0.369710829538
 40       0.043807005445
 41      -0.260208275029
 42      -0.063581408304
 43       0.475346045587
 44       0.003149548385
 45       0.429183022675
 46      -0.065969601075
 47       0.156452096970
 48       0.262134951962
 49       0.397421191345
 50       0.009388263914
 Sym=     1a
 Ene= 2.37525242718966E+00
 Spin= Alpha
 Occup= 0.000000
  1       0.041122992153
  2       0.025190228718
  3      -0.180516176565
  4      -0.032101710352
  5      -0.103600129159
  6      -1.558667647490
  7      -0.417899505794
  8      -0.174792159208
  9      -0.366943813154
 10      -0.519784118450
 11      -0.026445617481
 12      -0.429786758265
 13      -0.039095957943
 14       0.076229748068
 15      -0.047609136036
 16      -0.514510811313
 17       0.140652125587
 18       0.001489330614
 19      -0.025156902745
 20       1.982366906772
 21      -0.882483921071
 22       0.759947767045
 23       0.176223395647
 24      -0.681815225760
 25      -0.340065612947
 26       0.084041175586
 27      -0.004530741148
 28       0.116350658013
 29       0.015537909715
 30       0.124956724321
 31       0.014097645433
 32       0.211585378897
 33      -0.018564822396
 34      -1.045406459910
 35       0.276291953243
 36       0.166885929834
 37       0.012918968626
 38       0.093233902631
 39       0.066035793919
 40      -0.080040942794
 41      -0.189849576761
 42       0.065645018811
 43       0.020558582048
 44       0.060095980499
 45      -0.145137650875
 46       0.282387914726
 47       0.628666308699
 48      -0.001916113193
 49       0.059686237403
 50      -0.002244103701
 Sym=     1a
 Ene= 2.42466580854771E+00
 Spin= Alpha
 Occup= 0.000000
  1      -0.029634979079
  2      -0.367331630194
  3      -0.083949591799
  4      -0.013306284357
  5       0.018586562348
  6       1.326760592516
  7       0.587072578426
  8       0.131121646499
  9       0.203156691333
 10       0.096227166190
 11      -0.104245343827
 12       0.333374948428
 13       0.523290341949
 14       0.268461607753
 15       0.028673017346
 16       0.004531788527
 17       0.142491055093
 18       0.002219197322
 19       0.032263672030
 20      -0.622270509777
 21       0.583606462721
 22      -0.238545522253
 23      -0.036562979109
 24      -0.072401716255
 25       0.051541540557
 26       0.044752768403
 27       0.168697491458
 28       0.038539152518
 29      -0.010207057532
 30       0.385414578791
 31      -0.167220628620
 32      -0.081303597863
 33       0.002211672157
 34      -0.402273063517
 35       0.265692370862
 36       0.146405225296
 37      -0.006773800763
 38       0.557346818491
 39      -0.085732759648
 40       0.141952258834
 41      -0.342758416934
 42       0.327526386259
 43       0.483800381871
 44      -0.114960258486
 45      -0.070018320901
 46      -0.207065504513
 47      -0.293050411284
 48      -0.088946042794
 49      -0.120357541387
 50       0.043767869554
 Sym=     1a
 Ene= 2.47423182167941E+00
 Spin= Alpha
 Occup= 0.000000
  1      -0.011963256341
  2      -0.043477889894
  3      -0.048508245090
  4      -0.089136518542
  5      -0.062624691741
  6       0.078015186664
  7      -0.203025194370
  8      -0.171905523134
  9      -0.288020182236
 10      -0.184740265982
 11      -0.292458023918
 12       0.321776733767
 13      -0.406533869168
 14       0.528003890117
 15       0.007799601322
 16       0.156240586607
 17      -0.277977829595
 18      -0.086797203559
 19       0.057337810040
 20      -0.182998918365
 21      -0.232815560828
 22       0.152590528960
 23       0.252993117890
 24       0.247475138246
 25      -0.394617952938
 26       0.155531281266
 27      -0.045475679356
 28      -0.078908695277
 29      -0.011075845963
 30       0.120451208837
 31      -0.140611583501
 32      -0.085336645846
 33       0.037813083101
 34      -0.007630315199
 35       0.267174918295
 36      -0.064813056126
 37      -0.122033248338
 38      -0.059051050831
 39       0.203969158063
 40       0.124691005517
 41      -0.358716719781
 42      -0.365259075854
 43       0.052883459704
 44       0.004892823139
 45       0.149911269895
 46       0.133979006413
 47       0.033063008871
 48       0.035318402194
 49      -0.526098146128
 50      -0.013707675188
 Sym=     1a
 Ene= 2.56409870899395E+00
 Spin= Alpha
 Occup= 0.000000
  1       0.008248334736
  2       0.196504434849
  3      -0.019449614195
  4       0.005100723811
  5       0.034957429627
  6      -0.752058872248
  7      -0.592848989767
  8      -0.095769179113
  9       0.171900428683
 10       0.465717816286
 11       0.219698702558
 12       0.171116939154
 13      -0.240420970100
 14       0.146382605287
 15      -0.051570892387
 16      -0.096936974137
 17      -0.274658073169
 18      -0.003378331450
 19      -0.019785523383
 20       0.891656206067
 21      -0.362672789843
 22       0.375852263703
 23      -0.111649582180
 24      -0.520269245977
 25       0.278739384569
 26      -0.056925482471
 27      -0.513482669105
 28       0.271479739443
 29       0.032918302831
 30      -0.378547860819
 31       0.105642958091
 32       0.441123673411
 33      -0.007882805964
 34      -0.138271253418
 35       0.120639803685
 36      -0.255466164748
 37       0.032034937593
 38      -0.023376456323
 39      -0.107948289292
 40       0.031809856302
 41      -0.345864365872
 42      -0.125447655794
 43       0.124306444373
 44       0.022028579283
 45       0.037446780212
 46       0.087161594567
 47      -0.209353709066
 48      -0.010826640658
 49      -0.120509696231
 50       0.011190195940
 Sym=     1a
 Ene= 2.72009969838841E+00
 Spin= Alpha
 Occup= 0.000000
  1       0.009820070031
  2       0.047800436142
  3      -0.059667289466
  4      -0.048118766310
  5      -0.052068440687
  6      -0.571011488468
  7      -0.366280942353
  8      -0.490714594527
  9      -0.163297590646
 10      -0.447124018962
 11       0.808124588272
 12       0.102499033689
 13      -0.199781593138
 14       0.223240295047
 15       0.007541515886
 16       0.003116651357
 17      -0.040016954846
 18      -0.018011356032
 19      -0.138444493576
 20       0.548900526791
 21      -0.468451032861
 22       0.432814211651
 23      -0.099989893903
 24       0.154554031110
 25       0.429402140146
 26      -0.270386023979
 27       0.147679352631
 28      -0.128954738484
 29      -0.011410493894
 30       0.368689643183
 31      -0.132372273389
 32      -0.122931292081
 33      -0.033784733789
 34      -0.649060771020
 35       0.346781646120
 36       0.108146094001
 37       0.165701963793
 38       0.049081285425
 39      -0.297478752052
 40      -0.160186980477
 41      -0.150973108525
 42      -0.076995472119
 43       0.177593160913
 44       0.221645842236
 45       0.085017368010
 46       0.205613984924
 47       0.543602189804
 48      -0.091904288091
 49      -0.497665219217
 50      -0.058656758353
 Sym=     1a
 Ene= 2.84052235020524E+00
 Spin= Alpha
 Occup= 0.000000
  1      -0.008014505766
  2      -0.011787836893
  3       0.023344960976
  4       0.016002735405
  5      -0.000002087051
  6       0.239648400138
  7       0.061300074610
  8      -0.007763235822
  9       0.033427449520
 10       0.072576644117
 11      -0.237654991185
 12       0.164117047142
 13       0.052683166710
 14       0.019708059643
 15       0.003694719011
 16       0.012302123552
 17      -0.006356883804
 18      -0.009644950131
 19      -0.185010178724
 20      -0.202957335229
 21       0.130178221191
 22      -0.053232651656
 23      -0.241993579832
 24       0.021269788412
 25      -0.433468235783
 26      -0.844194697476
 27      -0.050756265855
 28       0.039853348508
 29       0.000963594411
 30      -0.030738061482
 31      -0.000514556109
 32       0.023598529144
 33      -0.011611158175
 34       0.074306010971
 35      -0.010246888000
 36      -0.043609082080
 37       0.413541336209
 38       0.007493680698
 39      -0.267530083555
 40      -0.907888931986
 41      -0.031290179993
 42       0.027599856982
 43       0.050010234102
 44      -0.014515524448
 45       0.029000987466
 46      -0.050638685485
 47      -0.152856091099
 48       0.047646977711
 49      -0.007242739195
 50      -0.036799367018
 Sym=     1a
 Ene= 3.02003766568801E+00
 Spin= Alpha
 Occup= 0.000000
  1      -0.069163181644
  2       0.061973589279
  3       0.566361710473
  4      -0.003952486145
  5      -0.016995754187
  6       1.970407691694
  7       1.127480109708
  8       0.133104640291
  9      -0.026707415329
 10      -0.545943634554
 11       0.045471942729
 12      -0.024308880495
 13       0.825711417351
 14       0.163775619611
 15       0.059781292339
 16      -0.287055573731
 17       0.442599521299
 18      -0.133282284078
 19       0.006536439574
 20      -2.244654717157
 21       1.131532662769
 22      -0.332022746818
 23       0.021910356438
 24       0.541077045683
 25       0.023602529758
 26       0.021994447689
 27      -0.851634232547
 28       0.244874403950
 29       0.005110250107
 30      -0.466975016117
 31       0.098093892673
 32       0.179758639794
 33       0.008764742219
 34       0.948297283564
 35      -0.332083283793
 36      -0.401135284787
 37      -0.040250586744
 38      -0.227238383754
 39       0.036489178866
 40       0.023514101621
 41      -0.077339576711
 42       0.003393271223
 43      -0.171614298894
 44      -0.074950747566
 45       0.231158933018
 46      -0.253626073526
 47       0.121418785844
 48      -0.048501574502
 49      -0.055856141707
 50       0.096148169000
 Sym=     1a
 Ene= 3.18481208646455E+00
 Spin= Alpha
 Occup= 0.000000
  1      -0.010928097507
  2       0.032823418680
  3       0.114836311622
  4      -0.085971017358
  5       0.008009272806
  6      -0.299770609523
  7      -0.051228574144
  8      -0.088327118188
  9       0.088258939704
 10      -0.064539573470
 11      -0.043950152641
 12      -0.034478545921
 13       0.229098659790
 14      -0.478283458739
 15       0.009994255383
 16       0.472603850899
 17       0.251507098616
 18       0.599188093928
 19      -0.005502134684
 20       0.925832974032
 21      -0.346741604384
 22       0.830767676030
 23      -0.034949554575
 24      -0.217951680871
 25      -0.010240671380
 26      -0.004931885642
 27      -0.684272060169
 28      -0.705786962900
 29       0.026341891066
 30       0.612046520031
 31      -0.004574547568
 32       0.037381188404
 33      -0.013370648690
 34      -1.913383183261
 35       0.836569888722
 36       0.755531795826
 37       0.046459909233
 38       0.436688611001
 39      -0.051316978433
 40      -0.007002169006
 41      -0.114710729223
 42      -0.856995735305
 43       0.345576914539
 44      -0.034230075739
 45      -0.347336472095
 46       0.448278957174
 47      -0.038650811612
 48      -0.024128535493
 49       0.206383393295
 50      -0.038003715163
 Sym=     1a
 Ene= 3.25585470892928E+00
 Spin= Alpha
 Occup= 0.000000
  1       0.018880674332
  2       0.141168157315
  3      -0.007180868484
  4      -0.018895179022
  5       0.021725329537
  6      -0.604871306622
  7      -0.220041836956
  8      -0.115061355874
  9      -0.068485648177
 10       0.073826727910
 11      -0.019160696272
 12      -0.052047124195
 13       0.027224046134
 14      -0.381706494660
 15      -0.015300018617
 16      -1.023112411611
 17      -0.416606803470
 18      -1.015697019165
 19      -0.000483922928
 20      -0.930536058708
 21      -0.599661849521
 22      -0.551896492197
 23       0.012243187330
 24       0.306030756919
 25      -0.015185148550
 26       0.009767057181
 27       0.364606212331
 28      -0.825656709871
 29      -0.055498870719
 30      -0.497427893386
 31      -0.091922063693
 32      -0.239795108027
 33      -0.009311604244
 34       2.277082192223
 35      -0.243560856138
 36      -1.471036030685
 37       0.023296765162
 38      -0.608831479658
 39      -0.016664562190
 40       0.004290588693
 41      -1.050919111488
 42       0.459441475196
 43       0.067369185756
 44       0.180801974549
 45      -0.156239589019
 46       0.208732683011
 47       0.010229504608
 48       0.115277959518
 49       0.174624677306
 50      -0.133212148673
